LAMMPS (10 Dec 2025)
OMP_NUM_THREADS environment is not set. Defaulting to 1 thread.
  using 1 OpenMP thread(s) per MPI task
# LAMMPS Input file generated by Proteus (CHONS Forcefield)

units real
atom_style full
boundary p p p

read_data /home/hy/code/projects/heroine/output/gradio_run_ad79b975/system.data
Reading data file ...
  orthogonal box = (-28.6284 -28.6284 -28.6284) to (28.6284 28.6284 28.6284)
  1 by 1 by 1 MPI processor grid
  reading atoms ...
  138 atoms
  scanning bonds ...
  4 = max bonds/atom
  scanning angles ...
  6 = max angles/atom
  scanning dihedrals ...
  18 = max dihedrals/atom
  orthogonal box = (-28.6284 -28.6284 -28.6284) to (28.6284 28.6284 28.6284)
  1 by 1 by 1 MPI processor grid
  reading bonds ...
  138 bonds
  reading angles ...
  218 angles
  reading dihedrals ...
  280 dihedrals
Finding 1-2 1-3 1-4 neighbors ...
  special bond factors lj:    0        0        0       
  special bond factors coul:  0        0        0       
     4 = max # of 1-2 neighbors
     9 = max # of 1-3 neighbors
    16 = max # of 1-4 neighbors
    19 = max # of special neighbors
  special bonds CPU = 0.000 seconds
  read_data CPU = 0.010 seconds

# Force Field
pair_style lj/cut 10.65
pair_modify mix arithmetic
pair_coeff 1 1 0.066 3.5
pair_coeff 2 2 0.03 2.5
pair_coeff 3 3 0.17 3.12
pair_coeff 4 4 0.17 3.25
pair_coeff 5 5 0.25 3.55

bond_style harmonic
bond_coeff 1 300.0 1.53
bond_coeff 2 300.0 1.54
bond_coeff 3 300.0 1.51
bond_coeff 4 300.0 1.4
bond_coeff 5 300.0 1.41
bond_coeff 6 300.0 1.52
bond_coeff 7 600.0 1.26
bond_coeff 8 300.0 1.11
bond_coeff 9 300.0 1.08
bond_coeff 10 300.0 1.01
bond_coeff 11 300.0 1.49
bond_coeff 12 300.0 1.39
bond_coeff 13 300.0 1.42

angle_style harmonic
angle_coeff 1 60.0 110.6
angle_coeff 2 60.0 110.3
angle_coeff 3 60.0 108.8
angle_coeff 4 60.0 108.9
angle_coeff 5 60.0 107.8
angle_coeff 6 60.0 110.0
angle_coeff 7 60.0 107.5
angle_coeff 8 60.0 111.6
angle_coeff 9 60.0 108.3
angle_coeff 10 60.0 109.2
angle_coeff 11 60.0 110.5
angle_coeff 12 60.0 110.8
angle_coeff 13 60.0 110.4
angle_coeff 14 60.0 108.7
angle_coeff 15 60.0 112.1
angle_coeff 16 60.0 109.9
angle_coeff 17 60.0 109.6
angle_coeff 18 60.0 106.5
angle_coeff 19 60.0 120.6
angle_coeff 20 60.0 120.1
angle_coeff 21 60.0 119.3
angle_coeff 22 60.0 120.4
angle_coeff 23 60.0 119.2
angle_coeff 24 60.0 120.5
angle_coeff 25 60.0 119.1
angle_coeff 26 60.0 119.0
angle_coeff 27 60.0 120.8
angle_coeff 28 60.0 120.3
angle_coeff 29 60.0 110.1
angle_coeff 30 60.0 111.2
angle_coeff 31 60.0 107.1
angle_coeff 32 60.0 106.6
angle_coeff 33 60.0 111.0
angle_coeff 34 60.0 107.9
angle_coeff 35 60.0 119.7
angle_coeff 36 60.0 120.7
angle_coeff 37 60.0 119.5
angle_coeff 38 60.0 120.9
angle_coeff 39 60.0 109.5
angle_coeff 40 60.0 109.3
angle_coeff 41 60.0 109.1
angle_coeff 42 60.0 121.1
angle_coeff 43 60.0 125.4
angle_coeff 44 60.0 119.8
angle_coeff 45 60.0 119.4
angle_coeff 46 60.0 118.5
angle_coeff 47 60.0 120.0
angle_coeff 48 60.0 119.9
angle_coeff 49 60.0 118.4
angle_coeff 50 60.0 122.0
angle_coeff 51 60.0 121.0
angle_coeff 52 60.0 118.9

dihedral_style harmonic
dihedral_coeff 1 1.0 1 3

neighbor 2.0 bin
neigh_modify delay 0 every 10 check yes

# 1-4 interactions are typically scaled in molecular force fields
special_bonds lj 0.0 0.0 0.5
Finding 1-2 1-3 1-4 neighbors ...
  special bond factors lj:    0        0        0.5     
  special bond factors coul:  0        0        0       
     4 = max # of 1-2 neighbors
     9 = max # of 1-3 neighbors
    16 = max # of 1-4 neighbors
    19 = max # of special neighbors
  special bonds CPU = 0.000 seconds

# Group definitions
group all_atoms type 1 2 3 4 5
138 atoms in group all_atoms

# Simulation Protocol
minimize 1.0e-4 1.0e-6 1000 10000
Switching to 'neigh_modify every 1 delay 0 check yes' setting during minimization
Generated 10 of 10 mixed pair_coeff terms from arithmetic mixing rule
Neighbor list info ...
  update: every = 1 steps, delay = 0 steps, check = yes
  max neighbors/atom: 2000, page size: 100000
  master list distance cutoff = 12.65
  ghost atom cutoff = 12.65
  binsize = 6.325, bins = 10 10 10
  1 neighbor lists, perpetual/occasional/extra = 1 0 0
  (1) pair lj/cut, perpetual
      attributes: half, newton on
      pair build: half/bin/newton
      stencil: half/bin/3d
      bin: standard
Per MPI rank memory allocation (min/avg/max) = 15.9 | 15.9 | 15.9 Mbytes
   Step          Temp          E_pair         E_mol          TotEng         Press     
         0   0              62.073324      239.30935      301.38267      141.00249    
        92   0              35.864176      111.77865      147.64282     -2.5971776    
Loop time of 0.00771307 on 1 procs for 92 steps with 138 atoms

94.2% CPU use with 1 MPI tasks x 1 OpenMP threads

Minimization stats:
  Stopping criterion = energy tolerance
  Energy initial, next-to-last, final = 
      301.382668846991   147.657467487626   147.642823515665
  Force two-norm initial, final = 121.88768 4.759
  Force max component initial, final = 19.226997 0.88861589
  Final line search alpha, max atom move = 0.020586002 0.018293048
  Iterations, force evaluations = 92 184

MPI task timing breakdown:
Section |  min time  |  avg time  |  max time  |%varavg| %total
---------------------------------------------------------------
Pair    | 0.0030299  | 0.0030299  | 0.0030299  |   0.0 | 39.28
Bond    | 0.0038211  | 0.0038211  | 0.0038211  |   0.0 | 49.54
Neigh   | 7.0654e-05 | 7.0654e-05 | 7.0654e-05 |   0.0 |  0.92
Comm    | 0.00013634 | 0.00013634 | 0.00013634 |   0.0 |  1.77
Output  | 0          | 0          | 0          |   0.0 |  0.00
Modify  | 0          | 0          | 0          |   0.0 |  0.00
Other   |            | 0.000655   |            |       |  8.49

Nlocal:            138 ave         138 max         138 min
Histogram: 1 0 0 0 0 0 0 0 0 0
Nghost:            223 ave         223 max         223 min
Histogram: 1 0 0 0 0 0 0 0 0 0
Neighs:           1375 ave        1375 max        1375 min
Histogram: 1 0 0 0 0 0 0 0 0 0

Total # of neighbors = 1375
Ave neighs/atom = 9.9637681
Ave special neighs/atom = 8.9565217
Neighbor list builds = 1
Dangerous builds = 0
reset_timestep 0

timestep 1.0

# 2. Equilibration / Dynamics
fix 1 all langevin 300.0 300.0 20.0 2155
fix 2 all nve

# Output
dump 1 all custom 200 /home/hy/code/projects/heroine/output/gradio_run_ad79b975/trajectory.dump id mol type x y z
compute rg all gyration
thermo_style custom step c_rg temp epair
thermo 200

# Run
run 50000
Generated 10 of 10 mixed pair_coeff terms from arithmetic mixing rule
Per MPI rank memory allocation (min/avg/max) = 14.78 | 14.78 | 14.78 Mbytes
   Step          c_rg           Temp          E_pair    
         0   22.173189      0              35.864176    
       200   22.153172      306.36952      35.896597    
       400   22.118873      289.51247      42.93872     
       600   22.122611      297.04466      38.665205    
       800   22.108706      290.62841      38.745913    
      1000   22.082111      287.71282      38.788659    
      1200   22.029137      284.31528      38.865587    
      1400   22.005977      345.26298      39.460167    
      1600   22.035843      310.34493      35.515597    
      1800   22.057143      280.63022      36.743082    
      2000   22.040213      293.21611      39.303842    
      2200   21.985115      339.13159      40.121651    
      2400   21.965646      305.13796      40.616431    
      2600   21.97338       326.79516      35.471368    
      2800   22.012548      350.25175      35.408462    
      3000   22.051589      260.09731      37.319607    
      3200   22.016951      325.69261      32.196888    
      3400   21.96051       313.32938      35.993185    
      3600   21.971411      299.98558      33.041603    
      3800   22.015791      291.19836      36.144725    
      4000   21.976717      288.7698       31.295584    
      4200   21.987459      303.20456      30.900703    
      4400   21.977871      278.02497      31.143604    
      4600   21.987842      297.6992       31.076186    
      4800   21.976557      289.8072       33.112237    
      5000   21.981607      305.03329      33.025026    
      5200   21.971698      286.24849      36.416763    
      5400   21.979291      314.40418      31.475274    
      5600   22.064705      324.7101       30.460715    
      5800   22.050205      306.86988      34.779113    
      6000   22.015404      300.69485      28.647375    
      6200   22.049527      300.85982      27.862087    
      6400   22.056303      327.91421      24.89845     
      6600   22.029755      339.92517      27.065158    
      6800   22.034247      316.60746      25.444687    
      7000   22.030317      257.93464      24.822486    
      7200   22.03332       305.55769      29.112446    
      7400   21.978123      313.45449      27.877054    
      7600   21.996865      298.38523      21.4965      
      7800   22.007358      305.76899      28.385143    
      8000   22.023624      310.51579      29.670609    
      8200   22.053476      297.93791      29.381025    
      8400   22.023423      269.75444      35.448153    
      8600   21.940964      305.8564       27.817863    
      8800   21.962164      318.89745      26.560021    
      9000   21.935413      324.0908       29.236999    
      9200   21.901415      288.40474      28.02665     
      9400   21.883127      271.05473      28.048859    
      9600   21.85188       320.84934      30.232263    
      9800   21.917643      303.03562      29.038517    
     10000   21.908794      293.13186      30.336065    
     10200   21.956552      284.94809      29.503892    
     10400   21.960922      311.95479      27.50548     
     10600   21.895696      281.41365      26.254444    
     10800   21.876457      272.01333      29.671079    
     11000   21.874951      267.67893      31.544631    
     11200   21.848074      328.51477      29.03464     
     11400   21.794785      281.47422      33.33464     
     11600   21.837363      315.33869      29.900316    
     11800   21.858169      319.495        28.202782    
     12000   21.872006      272.52417      28.091926    
     12200   21.908384      305.58133      29.378643    
     12400   21.863277      280.85387      29.620952    
     12600   21.963445      291.40274      26.812308    
     12800   21.955369      318.91787      28.500816    
     13000   21.906759      266.16835      28.216497    
     13200   21.891951      330.09764      26.254704    
     13400   21.922897      276.52854      24.747869    
     13600   21.941065      302.7335       30.129334    
     13800   21.976277      283.42793      26.178844    
     14000   21.995072      283.72534      27.268165    
     14200   22.025936      310.13073      26.988361    
     14400   22.069868      265.67638      33.0579      
     14600   22.089638      272.81749      22.931452    
     14800   22.047612      339.00724      30.348544    
     15000   22.067051      304.71761      33.17192     
     15200   22.053716      320.97902      37.73512     
     15400   22.054369      319.57264      27.686195    
     15600   22.017468      308.12554      28.90205     
     15800   22.005959      286.65979      29.157483    
     16000   21.989814      291.67355      28.114064    
     16200   21.946613      268.30255      33.457552    
     16400   21.962227      300.56696      29.856616    
     16600   22.002041      260.73443      27.702333    
     16800   22.010257      326.07365      32.425795    
     17000   22.078244      295.99018      26.076816    
     17200   22.107058      329.11504      24.667924    
     17400   22.069854      299.84833      27.716684    
     17600   22.080147      324.11392      28.194155    
     17800   22.022061      320.24172      31.442089    
     18000   22.003877      301.16192      28.763222    
     18200   22.003221      271.99749      28.080286    
     18400   22.037759      270.51274      25.802469    
     18600   22.067398      274.3926       29.925581    
     18800   22.081886      342.16055      28.346674    
     19000   22.102158      311.53989      24.035989    
     19200   22.09922       303.13535      31.328432    
     19400   22.120897      324.27938      28.608935    
     19600   22.075509      324.87328      32.582499    
     19800   22.041832      291.61991      30.7452      
     20000   22.053439      307.32582      30.058968    
     20200   22.045827      320.62611      29.253187    
     20400   22.032721      273.83757      28.882391    
     20600   22.037293      288.61567      23.388183    
     20800   22.059548      290.35218      34.194077    
     21000   22.154963      320.23209      24.0488      
     21200   22.145121      308.44907      28.219824    
     21400   22.140592      348.61785      29.923715    
     21600   22.181185      273.79152      32.974431    
     21800   22.170138      291.47768      29.219816    
     22000   22.214048      343.20426      26.971425    
     22200   22.123608      311.04484      30.961778    
     22400   22.126952      299.872        34.154115    
     22600   22.081221      371.3382       32.382303    
     22800   22.126105      313.4649       26.223895    
     23000   22.123659      282.41978      23.336818    
     23200   22.125978      277.84218      29.802283    
     23400   22.165244      323.27442      23.648138    
     23600   22.133023      287.92909      26.629617    
     23800   22.098726      264.44519      24.88702     
     24000   22.070397      309.42518      30.905705    
     24200   22.124659      322.69935      29.037277    
     24400   22.083393      332.87104      26.161497    
     24600   22.084799      280.75952      31.40231     
     24800   22.099033      275.34127      30.760033    
     25000   22.088025      268.70681      30.907689    
     25200   22.099001      318.54647      32.391124    
     25400   22.194726      323.0771       28.360519    
     25600   22.226337      299.2247       31.114649    
     25800   22.261207      294.93313      23.209562    
     26000   22.244859      310.15448      27.974143    
     26200   22.252497      337.28166      30.536416    
     26400   22.239866      327.97285      29.204563    
     26600   22.187358      324.86921      28.273405    
     26800   22.106629      261.21405      27.518065    
     27000   22.147495      304.49333      23.837255    
     27200   22.146563      277.60281      28.064243    
     27400   22.125847      286.99694      27.909879    
     27600   22.074703      303.76984      29.460395    
     27800   22.121984      265.5539       32.317585    
     28000   22.070148      312.8412       23.044592    
     28200   22.153877      325.71246      28.680366    
     28400   22.203838      311.73413      26.382276    
     28600   22.171869      325.8172       32.573699    
     28800   22.158454      282.28844      29.687829    
     29000   22.144952      306.69185      30.151886    
     29200   22.036333      315.49538      24.746368    
     29400   22.072127      292.79151      27.72898     
     29600   22.042026      310.97323      28.119211    
     29800   22.026919      250.81554      27.51074     
     30000   22.021637      257.50305      28.338706    
     30200   22.039274      291.66943      32.352945    
     30400   22.005864      310.43074      29.408117    
     30600   21.985584      280.25027      29.981794    
     30800   21.948049      271.36323      27.010303    
     31000   21.892522      269.79711      31.247671    
     31200   21.920882      261.88865      30.943942    
     31400   21.990589      279.37454      26.551485    
     31600   22.020821      353.2295       26.982339    
     31800   22.015931      285.55629      31.502789    
     32000   22.06353       302.36275      28.654061    
     32200   22.083556      285.68792      29.016284    
     32400   22.032738      283.05659      37.351813    
     32600   22.011758      257.71104      30.201287    
     32800   21.953588      353.02613      28.740356    
     33000   21.924081      290.95165      28.070821    
     33200   21.878851      250.95594      26.306112    
     33400   21.892845      338.59034      31.27528     
     33600   21.991079      337.20254      21.513987    
     33800   22.013665      319.73447      32.76338     
     34000   21.971786      294.28688      25.249304    
     34200   21.891369      280.93847      28.253307    
     34400   21.87797       318.63091      28.043084    
     34600   21.939543      279.57537      29.300589    
     34800   21.922513      294.5202       30.206286    
     35000   21.949229      320.49964      28.609123    
     35200   21.969277      281.86283      27.685077    
     35400   22.086927      309.16447      24.627383    
     35600   22.098616      307.01346      26.122094    
     35800   22.075906      293.76532      27.832507    
     36000   22.110651      266.15308      28.182198    
     36200   22.086516      295.51037      25.451243    
     36400   22.053965      289.63471      27.282907    
     36600   22.10891       306.41926      24.065339    
     36800   22.116377      296.80524      26.979771    
     37000   22.074597      284.42738      29.289987    
     37200   22.066117      310.24734      30.765137    
     37400   22.094591      311.88519      31.398855    
     37600   22.140998      260.31011      22.434039    
     37800   22.22314       267.14837      26.387931    
     38000   22.226419      319.64588      27.437441    
     38200   22.217835      304.32681      29.287036    
     38400   22.246306      270.62681      31.265906    
     38600   22.25995       292.33124      31.810153    
     38800   22.284914      293.28964      33.433218    
     39000   22.336571      301.51114      31.045425    
     39200   22.299361      301.30932      26.227878    
     39400   22.300644      289.27515      26.904097    
     39600   22.302426      300.25106      29.294218    
     39800   22.304485      308.38245      25.791087    
     40000   22.257421      314.3811       27.129313    
     40200   22.321681      283.96291      29.129903    
     40400   22.35881       278.43001      27.141579    
     40600   22.426792      277.55475      27.781618    
     40800   22.387667      302.74615      28.810689    
     41000   22.370031      314.94396      27.206457    
     41200   22.328017      300.21278      24.266848    
     41400   22.340215      292.40275      25.49687     
     41600   22.282218      314.85848      24.649709    
     41800   22.251419      289.45761      25.29258     
     42000   22.20622       350.46938      27.035171    
     42200   22.175083      298.28171      29.352435    
     42400   22.212974      284.20893      27.860165    
     42600   22.194399      339.32011      29.885082    
     42800   22.185253      315.23888      27.342736    
     43000   22.198447      290.63272      27.072308    
     43200   22.205823      297.35675      29.098943    
     43400   22.309017      306.32683      29.051632    
     43600   22.294441      301.60162      28.337109    
     43800   22.300239      296.36229      25.622555    
     44000   22.239205      286.73789      30.550194    
     44200   22.243212      331.86579      27.093789    
     44400   22.255233      339.96977      30.77896     
     44600   22.316363      293.95245      27.021908    
     44800   22.317252      328.80901      26.810822    
     45000   22.315467      346.11001      30.184179    
     45200   22.324938      288.1571       31.426325    
     45400   22.328182      327.56822      28.728054    
     45600   22.363044      301.10976      30.103174    
     45800   22.340564      330.99186      29.027975    
     46000   22.279767      321.60475      27.360833    
     46200   22.285701      331.16195      30.506535    
     46400   22.26461       251.62916      26.011556    
     46600   22.259634      290.67552      29.082578    
     46800   22.227017      329.6535       32.290871    
     47000   22.148192      299.48455      29.425188    
     47200   22.177139      316.68289      29.90661     
     47400   22.152494      275.30307      32.886383    
     47600   22.138745      324.49948      27.607619    
     47800   22.112474      303.11466      28.115181    
     48000   22.047046      294.25944      28.189458    
     48200   22.009493      292.36856      33.841776    
     48400   22.027023      301.57789      25.773144    
     48600   21.955899      316.21761      31.492737    
     48800   21.982124      309.1702       33.504115    
     49000   22.041731      296.688        28.885043    
     49200   22.055577      286.32574      27.43109     
     49400   22.090849      271.96344      27.934473    
     49600   22.0736        318.994        32.937123    
     49800   22.076643      289.79371      27.376117    
     50000   22.019604      308.56114      30.657426    
Loop time of 1.77596 on 1 procs for 50000 steps with 138 atoms

Performance: 2432.485 ns/day, 0.010 hours/ns, 28153.761 timesteps/s, 3.885 Matom-step/s
98.5% CPU use with 1 MPI tasks x 1 OpenMP threads

MPI task timing breakdown:
Section |  min time  |  avg time  |  max time  |%varavg| %total
---------------------------------------------------------------
Pair    | 0.44414    | 0.44414    | 0.44414    |   0.0 | 25.01
Bond    | 0.88126    | 0.88126    | 0.88126    |   0.0 | 49.62
Neigh   | 0.031522   | 0.031522   | 0.031522   |   0.0 |  1.77
Comm    | 0.036284   | 0.036284   | 0.036284   |   0.0 |  2.04
Output  | 0.036162   | 0.036162   | 0.036162   |   0.0 |  2.04
Modify  | 0.33153    | 0.33153    | 0.33153    |   0.0 | 18.67
Other   |            | 0.01507    |            |       |  0.85

Nlocal:            138 ave         138 max         138 min
Histogram: 1 0 0 0 0 0 0 0 0 0
Nghost:            167 ave         167 max         167 min
Histogram: 1 0 0 0 0 0 0 0 0 0
Neighs:           1620 ave        1620 max        1620 min
Histogram: 1 0 0 0 0 0 0 0 0 0

Total # of neighbors = 1620
Ave neighs/atom = 11.73913
Ave special neighs/atom = 8.9565217
Neighbor list builds = 416
Dangerous builds = 0
Total wall time: 0:00:01
