LAMMPS (10 Dec 2025)
OMP_NUM_THREADS environment is not set. Defaulting to 1 thread.
  using 1 OpenMP thread(s) per MPI task
# LAMMPS Input file generated by Proteus (CHONS Forcefield)

units real
atom_style full
boundary p p p

read_data /home/hy/code/projects/heroine/output/my_run/system.data
Reading data file ...
  orthogonal box = (-28.6284 -28.6284 -28.6284) to (28.6284 28.6284 28.6284)
  1 by 1 by 1 MPI processor grid
  reading atoms ...
  140 atoms
  scanning bonds ...
  4 = max bonds/atom
  scanning angles ...
  6 = max angles/atom
  scanning dihedrals ...
  15 = max dihedrals/atom
  orthogonal box = (-28.6284 -28.6284 -28.6284) to (28.6284 28.6284 28.6284)
  1 by 1 by 1 MPI processor grid
  reading bonds ...
  139 bonds
  reading angles ...
  232 angles
  reading dihedrals ...
  302 dihedrals
Finding 1-2 1-3 1-4 neighbors ...
  special bond factors lj:    0        0        0       
  special bond factors coul:  0        0        0       
     4 = max # of 1-2 neighbors
     8 = max # of 1-3 neighbors
    18 = max # of 1-4 neighbors
    20 = max # of special neighbors
  special bonds CPU = 0.000 seconds
  read_data CPU = 0.012 seconds

# Force Field
pair_style lj/cut 10.65
pair_modify mix arithmetic
pair_coeff 1 1 0.066 3.5
pair_coeff 2 2 0.03 2.5
pair_coeff 3 3 0.17 3.12
pair_coeff 4 4 0.17 3.25
pair_coeff 5 5 0.25 3.55

bond_style harmonic
bond_coeff 1 600.0 1.33
bond_coeff 2 300.0 1.47
bond_coeff 3 600.0 1.26
bond_coeff 4 300.0 1.43
bond_coeff 5 300.0 1.08
bond_coeff 6 300.0 1.04
bond_coeff 7 300.0 1.53
bond_coeff 8 300.0 1.54
bond_coeff 9 300.0 1.42
bond_coeff 10 300.0 1.41
bond_coeff 11 300.0 1.4
bond_coeff 12 300.0 1.39
bond_coeff 13 300.0 1.51
bond_coeff 14 300.0 1.11
bond_coeff 15 300.0 1.01

angle_style harmonic
angle_coeff 1 60.0 121.5
angle_coeff 2 60.0 119.9
angle_coeff 3 60.0 118.6
angle_coeff 4 60.0 122.5
angle_coeff 5 60.0 118.7
angle_coeff 6 60.0 118.8
angle_coeff 7 60.0 120.7
angle_coeff 8 60.0 119.4
angle_coeff 9 60.0 120.8
angle_coeff 10 60.0 120.3
angle_coeff 11 60.0 118.9
angle_coeff 12 60.0 110.2
angle_coeff 13 60.0 110.6
angle_coeff 14 60.0 108.9
angle_coeff 15 60.0 108.2
angle_coeff 16 60.0 108.7
angle_coeff 17 60.0 110.7
angle_coeff 18 60.0 108.4
angle_coeff 19 60.0 113.3
angle_coeff 20 60.0 104.4
angle_coeff 21 60.0 109.6
angle_coeff 22 60.0 110.3
angle_coeff 23 60.0 109.8
angle_coeff 24 60.0 111.7
angle_coeff 25 60.0 108.1
angle_coeff 26 60.0 109.4
angle_coeff 27 60.0 107.6
angle_coeff 28 60.0 121.6
angle_coeff 29 60.0 118.4
angle_coeff 30 60.0 120.1
angle_coeff 31 60.0 121.9
angle_coeff 32 60.0 118.0
angle_coeff 33 60.0 119.8
angle_coeff 34 60.0 120.0
angle_coeff 35 60.0 120.4
angle_coeff 36 60.0 119.7
angle_coeff 37 60.0 120.5
angle_coeff 38 60.0 121.0
angle_coeff 39 60.0 117.8
angle_coeff 40 60.0 121.2
angle_coeff 41 60.0 121.7
angle_coeff 42 60.0 110.9
angle_coeff 43 60.0 111.4
angle_coeff 44 60.0 109.1
angle_coeff 45 60.0 109.0
angle_coeff 46 60.0 106.9
angle_coeff 47 60.0 124.3

dihedral_style harmonic
dihedral_coeff 1 10.0 -1 2
dihedral_coeff 2 1.0 1 3

neighbor 2.0 bin
neigh_modify delay 0 every 10 check yes

# 1-4 interactions are typically scaled in molecular force fields
special_bonds lj 0.0 0.0 0.5
Finding 1-2 1-3 1-4 neighbors ...
  special bond factors lj:    0        0        0.5     
  special bond factors coul:  0        0        0       
     4 = max # of 1-2 neighbors
     8 = max # of 1-3 neighbors
    18 = max # of 1-4 neighbors
    20 = max # of special neighbors
  special bonds CPU = 0.000 seconds

# Group definitions
group all_atoms type 1 2 3 4 5
140 atoms in group all_atoms

# Simulation Protocol
minimize 1.0e-4 1.0e-6 1000 10000
Switching to 'neigh_modify every 1 delay 0 check yes' setting during minimization
Generated 10 of 10 mixed pair_coeff terms from arithmetic mixing rule
Neighbor list info ...
  update: every = 1 steps, delay = 0 steps, check = yes
  max neighbors/atom: 2000, page size: 100000
  master list distance cutoff = 12.65
  ghost atom cutoff = 12.65
  binsize = 6.325, bins = 10 10 10
  1 neighbor lists, perpetual/occasional/extra = 1 0 0
  (1) pair lj/cut, perpetual
      attributes: half, newton on
      pair build: half/bin/newton
      stencil: half/bin/3d
      bin: standard
Per MPI rank memory allocation (min/avg/max) = 15.03 | 15.03 | 15.03 Mbytes
   Step          Temp          E_pair         E_mol          TotEng         Press     
         0   0              39.616158      210.51341      250.12957      114.23827    
        67   0              33.388739      86.878687      120.26743     -2.0212193    
Loop time of 0.0101863 on 1 procs for 67 steps with 140 atoms

97.0% CPU use with 1 MPI tasks x 1 OpenMP threads

Minimization stats:
  Stopping criterion = energy tolerance
  Energy initial, next-to-last, final = 
      250.129569436005   120.277468068993   120.267425201758
  Force two-norm initial, final = 109.68598 4.2325285
  Force max component initial, final = 23.082356 1.3650851
  Final line search alpha, max atom move = 0.046591271 0.06360105
  Iterations, force evaluations = 67 134

MPI task timing breakdown:
Section |  min time  |  avg time  |  max time  |%varavg| %total
---------------------------------------------------------------
Pair    | 0.0047205  | 0.0047205  | 0.0047205  |   0.0 | 46.34
Bond    | 0.0049964  | 0.0049964  | 0.0049964  |   0.0 | 49.05
Neigh   | 0          | 0          | 0          |   0.0 |  0.00
Comm    | 8.2348e-05 | 8.2348e-05 | 8.2348e-05 |   0.0 |  0.81
Output  | 0          | 0          | 0          |   0.0 |  0.00
Modify  | 0          | 0          | 0          |   0.0 |  0.00
Other   |            | 0.000387   |            |       |  3.80

Nlocal:            140 ave         140 max         140 min
Histogram: 1 0 0 0 0 0 0 0 0 0
Nghost:            104 ave         104 max         104 min
Histogram: 1 0 0 0 0 0 0 0 0 0
Neighs:           2415 ave        2415 max        2415 min
Histogram: 1 0 0 0 0 0 0 0 0 0

Total # of neighbors = 2415
Ave neighs/atom = 17.25
Ave special neighs/atom = 9.4
Neighbor list builds = 0
Dangerous builds = 0
reset_timestep 0

timestep 1.0

# 2. Equilibration / Dynamics
fix 1 all langevin 300.0 300.0 20.0 4873
fix 2 all nve

# Output
dump 1 all custom 200 /home/hy/code/projects/heroine/output/my_run/trajectory.dump id mol type x y z
compute rg all gyration
thermo_style custom step c_rg temp epair
thermo 200

# Run
run 50000
Generated 10 of 10 mixed pair_coeff terms from arithmetic mixing rule
Per MPI rank memory allocation (min/avg/max) = 13.9 | 13.9 | 13.9 Mbytes
   Step          c_rg           Temp          E_pair    
         0   19.073095      0              33.388739    
       200   19.04106       314.67348      32.565518    
       400   19.026876      294.19174      39.26185     
       600   19.016105      287.58789      41.352299    
       800   18.972206      316.73612      36.21093     
      1000   19.041198      306.14603      40.567845    
      1200   19.072913      279.09942      34.569162    
      1400   19.034479      296.61272      37.575488    
      1600   19.088931      287.60432      36.373334    
      1800   19.072706      300.87519      35.805106    
      2000   19.031313      310.4209       36.258306    
      2200   19.065246      282.22685      34.62971     
      2400   19.026585      321.10594      34.647195    
      2600   18.958146      316.50141      37.037691    
      2800   18.956034      329.02179      36.255579    
      3000   18.942754      333.16632      38.517644    
      3200   18.905269      345.94046      34.345929    
      3400   18.902605      267.30191      37.221566    
      3600   18.966268      297.53697      36.096534    
      3800   18.97006       288.09807      35.688578    
      4000   18.961079      321.18957      35.458981    
      4200   18.975842      280.2541       36.672185    
      4400   19.006542      306.09727      34.532561    
      4600   18.970984      306.01662      27.664366    
      4800   18.951977      311.68185      37.850078    
      5000   18.898069      296.9628       40.18591     
      5200   18.922761      321.02172      38.165015    
      5400   18.956147      304.34222      33.852511    
      5600   18.873366      323.26057      33.226831    
      5800   18.922466      278.56197      32.041772    
      6000   18.906399      324.32095      33.948234    
      6200   18.93184       293.64586      32.870338    
      6400   18.919002      301.20192      34.697558    
      6600   18.859805      289.01953      42.406677    
      6800   18.782143      332.17557      38.495614    
      7000   18.740535      276.53534      40.611314    
      7200   18.68595       273.18137      34.811147    
      7400   18.667147      306.37593      37.796331    
      7600   18.721457      324.92983      34.948572    
      7800   18.72761       293.82653      35.727929    
      8000   18.774004      263.88159      32.32762     
      8200   18.761244      319.85033      34.545469    
      8400   18.721105      303.73632      34.922621    
      8600   18.698849      281.48389      33.150873    
      8800   18.72159       326.51131      32.793363    
      9000   18.755272      309.56532      30.960451    
      9200   18.768189      300.65662      40.205121    
      9400   18.837297      306.31885      33.241586    
      9600   18.813519      283.10449      36.395887    
      9800   18.830288      278.65563      32.52061     
     10000   18.780598      317.69086      35.45793     
     10200   18.748168      277.10458      35.90405     
     10400   18.834138      276.8915       28.931558    
     10600   18.905381      343.29849      27.858689    
     10800   18.901241      294.74135      32.979981    
     11000   18.933196      337.95562      31.870868    
     11200   18.948037      317.17938      33.08833     
     11400   18.99081       312.6977       31.771376    
     11600   18.955255      321.92239      35.143468    
     11800   18.946312      277.11647      37.773211    
     12000   18.952668      322.42855      33.846786    
     12200   18.983813      294.759        28.499903    
     12400   18.969786      334.27311      35.458797    
     12600   18.984429      304.05187      30.553435    
     12800   18.961413      299.24327      29.68323     
     13000   18.979517      315.40248      33.655211    
     13200   18.955691      325.90709      35.951995    
     13400   18.98842       298.8844       38.197397    
     13600   19.007089      304.35957      35.460913    
     13800   18.987453      285.52284      33.571258    
     14000   18.996638      312.75428      31.005184    
     14200   18.980041      312.76863      34.564929    
     14400   18.946221      302.62813      34.728243    
     14600   18.960761      283.31521      42.760675    
     14800   19.009805      281.97352      31.546324    
     15000   19.092818      289.24233      33.926787    
     15200   19.094632      305.61683      35.39174     
     15400   19.143848      339.85327      33.038248    
     15600   19.127019      304.98154      35.493745    
     15800   19.119951      281.87701      34.400662    
     16000   19.121591      292.21549      35.608514    
     16200   19.133613      295.98893      33.434835    
     16400   19.128839      317.25576      36.504312    
     16600   19.167037      275.21204      33.759904    
     16800   19.103563      315.50913      35.658213    
     17000   19.12448       309.73112      29.38443     
     17200   19.134489      286.68713      31.753611    
     17400   19.103433      295.08454      35.056228    
     17600   19.102721      302.29246      30.727965    
     17800   19.140553      321.17824      31.548203    
     18000   19.160649      320.0346       33.128913    
     18200   19.175095      305.61233      31.356506    
     18400   19.106619      317.99684      31.145562    
     18600   19.109753      274.25244      32.670672    
     18800   19.068122      279.49319      37.310643    
     19000   19.069336      312.60705      34.52611     
     19200   19.043392      303.88548      39.865487    
     19400   19.011399      303.47617      34.3167      
     19600   19.070661      320.63918      32.099078    
     19800   19.082687      267.73129      34.496816    
     20000   19.058973      337.71731      31.673079    
     20200   18.936378      259.43378      38.167993    
     20400   18.91573       320.65778      39.568474    
     20600   18.90118       339.98079      34.909295    
     20800   18.886233      279.59558      34.358183    
     21000   18.856502      290.81203      32.95209     
     21200   18.863372      263.52119      35.41114     
     21400   18.83311       300.51933      39.210924    
     21600   18.765192      315.27229      34.647125    
     21800   18.721719      308.28953      30.825101    
     22000   18.693054      291.35886      32.145084    
     22200   18.748477      298.85646      35.248232    
     22400   18.736537      315.44054      36.805877    
     22600   18.702361      312.82102      31.746416    
     22800   18.684648      315.36813      33.682743    
     23000   18.728586      269.84605      36.290921    
     23200   18.766339      281.66366      36.133965    
     23400   18.823559      284.89978      27.911945    
     23600   18.772794      296.11264      31.64244     
     23800   18.786564      306.58477      32.504938    
     24000   18.755303      289.27077      29.661693    
     24200   18.767268      319.89955      30.295896    
     24400   18.757677      283.36904      35.175077    
     24600   18.711799      298.55294      29.793265    
     24800   18.740311      304.71599      35.194994    
     25000   18.861782      274.02065      33.187456    
     25200   18.876604      288.98619      33.234967    
     25400   18.834925      310.51477      36.15263     
     25600   18.783023      324.75232      35.124866    
     25800   18.770021      295.45004      41.451616    
     26000   18.852566      305.87069      34.150718    
     26200   18.820536      292.69184      33.575008    
     26400   18.818664      307.2436       36.857093    
     26600   18.782716      335.29525      32.056156    
     26800   18.827681      319.24548      33.488874    
     27000   18.810268      276.03043      36.261088    
     27200   18.855631      300.60612      40.786848    
     27400   18.804617      327.85034      37.986937    
     27600   18.807484      302.9575       34.996721    
     27800   18.793496      290.02785      34.875057    
     28000   18.76232       297.75909      36.953405    
     28200   18.773154      286.49031      34.03824     
     28400   18.778649      303.24862      37.834443    
     28600   18.856203      302.37558      33.367311    
     28800   18.84754       293.91524      34.158327    
     29000   18.860927      266.39574      34.003382    
     29200   18.874489      294.0035       32.550238    
     29400   18.923402      315.13458      30.650845    
     29600   18.975924      294.01503      34.314235    
     29800   18.925196      303.5201       44.119667    
     30000   18.907282      282.41638      34.390809    
     30200   18.939994      302.38556      33.292123    
     30400   18.973033      285.87617      37.10842     
     30600   19.013854      323.13911      32.988044    
     30800   18.982217      302.59622      32.271805    
     31000   18.960192      333.79089      33.205689    
     31200   18.994797      280.96294      30.621853    
     31400   19.070435      306.23616      31.880527    
     31600   19.141629      294.2028       39.146087    
     31800   19.202032      329.6413       33.019544    
     32000   19.253287      290.25219      30.71284     
     32200   19.229013      307.36615      33.369945    
     32400   19.280513      310.29338      32.965637    
     32600   19.2779        282.5764       32.181393    
     32800   19.205968      299.6689       33.551284    
     33000   19.203922      316.61641      35.493574    
     33200   19.235727      312.31449      29.876915    
     33400   19.177672      285.34311      35.055576    
     33600   19.168565      312.15696      32.775241    
     33800   19.185905      290.22893      36.110884    
     34000   19.156131      290.59428      34.82361     
     34200   19.163721      324.54836      33.398731    
     34400   19.193268      286.07975      35.237758    
     34600   19.204367      296.24163      40.987936    
     34800   19.236097      336.09363      35.015654    
     35000   19.230659      281.96157      35.138074    
     35200   19.282402      267.5005       34.222765    
     35400   19.23235       322.55855      35.865086    
     35600   19.181666      307.06668      40.127659    
     35800   19.204119      296.45709      28.023963    
     36000   19.208311      302.80845      38.342425    
     36200   19.277163      298.64565      35.218014    
     36400   19.238098      313.95278      35.217632    
     36600   19.244495      304.02245      33.184279    
     36800   19.150403      307.50095      35.455485    
     37000   19.164161      257.07591      35.046093    
     37200   19.126433      325.5906       36.114326    
     37400   19.114491      299.57609      33.206485    
     37600   19.182461      283.65791      32.929296    
     37800   19.197425      282.57414      31.661233    
     38000   19.248042      336.71878      31.286578    
     38200   19.226922      281.80526      38.704766    
     38400   19.231939      325.28052      33.342795    
     38600   19.330213      280.22122      33.211901    
     38800   19.349726      290.08589      34.011809    
     39000   19.335226      283.19554      38.698161    
     39200   19.299489      331.88343      39.553259    
     39400   19.296915      342.70259      33.985697    
     39600   19.29919       293.29906      31.873013    
     39800   19.312465      289.80369      29.100941    
     40000   19.320589      304.66767      35.875585    
     40200   19.300075      325.45022      39.27866     
     40400   19.263619      289.09818      38.540436    
     40600   19.226435      311.69463      31.638611    
     40800   19.227415      289.7347       32.657752    
     41000   19.329802      309.69085      33.604276    
     41200   19.312013      334.26788      35.065358    
     41400   19.218305      287.75526      33.625204    
     41600   19.209216      323.81136      35.082277    
     41800   19.212872      283.75543      33.004871    
     42000   19.225432      293.95988      36.889033    
     42200   19.14768       283.18487      38.139413    
     42400   19.189733      297.32957      32.221352    
     42600   19.191736      282.83333      38.85011     
     42800   19.206651      270.6695       32.904415    
     43000   19.170856      272.72831      32.939371    
     43200   19.165243      302.76297      33.593994    
     43400   19.192606      290.27398      33.027556    
     43600   19.163582      290.87394      30.376676    
     43800   19.151806      328.35119      28.317888    
     44000   19.150389      317.73222      37.12253     
     44200   19.123482      320.68692      38.973652    
     44400   19.131047      281.61208      38.36854     
     44600   19.082722      347.92644      36.787383    
     44800   19.091509      322.84352      32.462363    
     45000   19.112588      319.62665      38.947185    
     45200   19.008639      286.87272      33.691306    
     45400   19.018718      264.8685       37.303192    
     45600   19.075759      308.99702      32.621379    
     45800   19.05985       299.99152      31.310708    
     46000   19.057381      273.54399      31.701667    
     46200   19.074743      292.09427      36.849221    
     46400   19.065607      312.19645      36.517065    
     46600   19.089189      327.21457      34.283518    
     46800   19.130297      295.85037      35.670013    
     47000   19.096498      360.21346      32.117836    
     47200   19.09656       308.31705      32.574518    
     47400   19.104526      304.03437      34.148792    
     47600   19.161742      286.40261      32.833832    
     47800   19.130729      323.16279      32.26533     
     48000   19.014025      324.87997      37.010584    
     48200   18.993509      309.99577      30.924477    
     48400   19.041077      312.16048      30.76069     
     48600   19.088595      303.18696      30.095512    
     48800   19.063666      294.66605      35.307718    
     49000   18.940319      282.10824      36.175161    
     49200   18.904509      293.89366      29.829638    
     49400   18.860352      312.68706      31.020711    
     49600   18.945517      320.5646       39.333443    
     49800   18.962098      308.07473      35.66205     
     50000   19.02819       305.55673      37.436315    
Loop time of 3.19012 on 1 procs for 50000 steps with 140 atoms

Performance: 1354.181 ns/day, 0.018 hours/ns, 15673.393 timesteps/s, 2.194 Matom-step/s
100.0% CPU use with 1 MPI tasks x 1 OpenMP threads

MPI task timing breakdown:
Section |  min time  |  avg time  |  max time  |%varavg| %total
---------------------------------------------------------------
Pair    | 1.0662     | 1.0662     | 1.0662     |   0.0 | 33.42
Bond    | 1.4357     | 1.4357     | 1.4357     |   0.0 | 45.01
Neigh   | 0.0549     | 0.0549     | 0.0549     |   0.0 |  1.72
Comm    | 0.030013   | 0.030013   | 0.030013   |   0.0 |  0.94
Output  | 0.048759   | 0.048759   | 0.048759   |   0.0 |  1.53
Modify  | 0.53575    | 0.53575    | 0.53575    |   0.0 | 16.79
Other   |            | 0.01876    |            |       |  0.59

Nlocal:            140 ave         140 max         140 min
Histogram: 1 0 0 0 0 0 0 0 0 0
Nghost:             87 ave          87 max          87 min
Histogram: 1 0 0 0 0 0 0 0 0 0
Neighs:           2386 ave        2386 max        2386 min
Histogram: 1 0 0 0 0 0 0 0 0 0

Total # of neighbors = 2386
Ave neighs/atom = 17.042857
Ave special neighs/atom = 9.4
Neighbor list builds = 438
Dangerous builds = 0
Total wall time: 0:00:03
