LAMMPS (22 Jul 2025 - Update 2)
OMP_NUM_THREADS environment is not set. Defaulting to 1 thread.
  using 1 OpenMP thread(s) per MPI task
# LAMMPS Input file generated by Proteus (CHONS Forcefield)

units real
atom_style full
boundary p p p

read_data /mnt/d_drive/programs/heroine/output/verify_efficiency/system.data
Reading data file ...
  orthogonal box = (-28.6284 -28.6284 -28.6284) to (28.6284 28.6284 28.6284)
  1 by 1 by 1 MPI processor grid
  reading atoms ...
  115 atoms
  scanning bonds ...
  4 = max bonds/atom
  scanning angles ...
  6 = max angles/atom
  scanning dihedrals ...
  8 = max dihedrals/atom
  orthogonal box = (-28.6284 -28.6284 -28.6284) to (28.6284 28.6284 28.6284)
  1 by 1 by 1 MPI processor grid
  reading bonds ...
  114 bonds
  reading angles ...
  172 angles
  reading dihedrals ...
  212 dihedrals
Finding 1-2 1-3 1-4 neighbors ...
  special bond factors lj:    0        0        0       
  special bond factors coul:  0        0        0       
     4 = max # of 1-2 neighbors
     6 = max # of 1-3 neighbors
    13 = max # of 1-4 neighbors
    15 = max # of special neighbors
  special bonds CPU = 0.000 seconds
  read_data CPU = 0.005 seconds

# Force Field
pair_style lj/cut 10.65
pair_modify mix arithmetic
pair_coeff 1 1 0.066 3.5
pair_coeff 2 2 0.03 2.5
pair_coeff 3 3 0.17 3.12
pair_coeff 4 4 0.17 3.25
pair_coeff 5 5 0.25 3.55

bond_style harmonic
bond_coeff 1 600.0 1.33
bond_coeff 2 300.0 1.47
bond_coeff 3 600.0 1.26
bond_coeff 4 300.0 1.43
bond_coeff 5 300.0 1.08
bond_coeff 6 300.0 1.04
bond_coeff 7 300.0 1.49
bond_coeff 8 300.0 1.4
bond_coeff 9 300.0 1.41
bond_coeff 10 300.0 1.39
bond_coeff 11 300.0 1.42
bond_coeff 12 300.0 1.11
bond_coeff 13 300.0 1.01

angle_style harmonic
angle_coeff 1 60.0 121.5
angle_coeff 2 60.0 119.9
angle_coeff 3 60.0 118.6
angle_coeff 4 60.0 122.5
angle_coeff 5 60.0 118.7
angle_coeff 6 60.0 118.8
angle_coeff 7 60.0 120.7
angle_coeff 8 60.0 119.4
angle_coeff 9 60.0 120.8
angle_coeff 10 60.0 120.3
angle_coeff 11 60.0 118.9
angle_coeff 12 60.0 110.1
angle_coeff 13 60.0 109.9
angle_coeff 14 60.0 109.5
angle_coeff 15 60.0 108.9
angle_coeff 16 60.0 109.3
angle_coeff 17 60.0 109.1
angle_coeff 18 60.0 119.5
angle_coeff 19 60.0 119.3
angle_coeff 20 60.0 121.1
angle_coeff 21 60.0 125.4
angle_coeff 22 60.0 119.8
angle_coeff 23 60.0 120.6
angle_coeff 24 60.0 118.5
angle_coeff 25 60.0 120.1
angle_coeff 26 60.0 120.0
angle_coeff 27 60.0 118.4
angle_coeff 28 60.0 119.0
angle_coeff 29 60.0 122.0
angle_coeff 30 60.0 121.0
angle_coeff 31 60.0 120.9

dihedral_style harmonic
dihedral_coeff 1 10.0 -1 2
dihedral_coeff 2 1.0 1 3

neighbor 2.0 bin
neigh_modify delay 0 every 10 check yes

# 1-4 interactions are typically scaled in molecular force fields
special_bonds lj 0.0 0.0 0.5
Finding 1-2 1-3 1-4 neighbors ...
  special bond factors lj:    0        0        0.5     
  special bond factors coul:  0        0        0       
     4 = max # of 1-2 neighbors
     6 = max # of 1-3 neighbors
    13 = max # of 1-4 neighbors
    15 = max # of special neighbors
  special bonds CPU = 0.000 seconds

# Group definitions
group all_atoms type 1 2 3 4 5
115 atoms in group all_atoms

# Simulation Protocol
minimize 1.0e-4 1.0e-6 1000 10000
Switching to 'neigh_modify every 1 delay 0 check yes' setting during minimization
Generated 10 of 10 mixed pair_coeff terms from arithmetic mixing rule
Neighbor list info ...
  update: every = 1 steps, delay = 0 steps, check = yes
  max neighbors/atom: 2000, page size: 100000
  master list distance cutoff = 12.65
  ghost atom cutoff = 12.65
  binsize = 6.325, bins = 10 10 10
  1 neighbor lists, perpetual/occasional/extra = 1 0 0
  (1) pair lj/cut, perpetual
      attributes: half, newton on
      pair build: half/bin/newton
      stencil: half/bin/3d
      bin: standard
Per MPI rank memory allocation (min/avg/max) = 12.52 | 12.52 | 12.52 Mbytes
   Step          Temp          E_pair         E_mol          TotEng         Press     
         0   0              57.726762      202.8568       260.58356      123.94698    
        86   0              31.315217      98.560453      129.87567     -0.88891643   
Loop time of 0.0106508 on 1 procs for 86 steps with 115 atoms

99.4% CPU use with 1 MPI tasks x 1 OpenMP threads

Minimization stats:
  Stopping criterion = energy tolerance
  Energy initial, next-to-last, final = 
      260.583561511099   129.888591153944   129.875669731123
  Force two-norm initial, final = 114.88285 5.1310802
  Force max component initial, final = 18.806887 2.2719533
  Final line search alpha, max atom move = 0.032657526 0.074196374
  Iterations, force evaluations = 86 172

MPI task timing breakdown:
Section |  min time  |  avg time  |  max time  |%varavg| %total
---------------------------------------------------------------
Pair    | 0.0013406  | 0.0013406  | 0.0013406  |   0.0 | 12.59
Bond    | 0.0020946  | 0.0020946  | 0.0020946  |   0.0 | 19.67
Neigh   | 0          | 0          | 0          |   0.0 |  0.00
Comm    | 7.2833e-05 | 7.2833e-05 | 7.2833e-05 |   0.0 |  0.68
Output  | 0          | 0          | 0          |   0.0 |  0.00
Modify  | 0          | 0          | 0          |   0.0 |  0.00
Other   |            | 0.007143   |            |       | 67.06

Nlocal:            115 ave         115 max         115 min
Histogram: 1 0 0 0 0 0 0 0 0 0
Nghost:            130 ave         130 max         130 min
Histogram: 1 0 0 0 0 0 0 0 0 0
Neighs:            863 ave         863 max         863 min
Histogram: 1 0 0 0 0 0 0 0 0 0

Total # of neighbors = 863
Ave neighs/atom = 7.5043478
Ave special neighs/atom = 8.4
Neighbor list builds = 0
Dangerous builds = 0
reset_timestep 0

timestep 1.0

# 2. Equilibration / Dynamics
fix 1 all langevin 300.0 300.0 20.0 45720
fix 2 all nve

# Output
dump 1 all custom 20 /mnt/d_drive/programs/heroine/output/verify_efficiency/trajectory.dump id mol type x y z
compute rg all gyration
thermo_style custom step c_rg temp epair
thermo 20

# Run
run 5000
Generated 10 of 10 mixed pair_coeff terms from arithmetic mixing rule
Per MPI rank memory allocation (min/avg/max) = 11.4 | 11.4 | 11.4 Mbytes
   Step          c_rg           Temp          E_pair    
         0   21.680757      0              31.315217    
        20   21.678858      187.00449      31.804995    
        40   21.66648       278.25623      34.613818    
        60   21.661215      277.72835      33.936616    
        80   21.657497      318.15833      30.606698    
       100   21.650252      346.91669      30.334341    
       120   21.648824      288.4013       31.509604    
       140   21.648904      283.75164      32.359461    
       160   21.65292       278.40861      31.306532    
       180   21.64239       311.28713      32.240861    
       200   21.642934      288.04235      32.450864    
       220   21.656666      293.93478      32.179789    
       240   21.660754      341.09007      33.820704    
       260   21.650963      316.1128       27.53104     
       280   21.62658       302.28652      29.467399    
       300   21.613598      312.49613      28.331253    
       320   21.606402      282.8853       30.517802    
       340   21.605061      311.5421       28.271974    
       360   21.594855      308.05735      29.436322    
       380   21.596957      299.33703      29.622337    
       400   21.605966      315.47302      31.833178    
       420   21.616092      340.9879       33.993943    
       440   21.622471      308.8833       35.90171     
       460   21.620027      292.61258      29.603503    
       480   21.623293      266.87385      31.574271    
       500   21.635286      305.59898      30.138085    
       520   21.640615      290.39555      37.385631    
       540   21.633894      311.39897      29.491237    
       560   21.633075      301.62005      29.826606    
       580   21.645004      297.24357      35.396633    
       600   21.65952       321.18293      31.809305    
       620   21.671543      277.77872      31.04577     
       640   21.686731      299.94701      27.317419    
       660   21.692588      266.70099      29.17554     
       680   21.689356      297.98175      30.990024    
       700   21.683816      375.5635       33.528833    
       720   21.673577      308.78305      32.048305    
       740   21.66768       311.29026      32.274353    
       760   21.672403      276.10561      30.833725    
       780   21.65619       282.62475      31.63237     
       800   21.655538      287.87532      29.193101    
       820   21.64928       278.57125      31.232891    
       840   21.638622      255.5609       31.320244    
       860   21.633178      342.40478      27.157423    
       880   21.642793      295.60488      28.844854    
       900   21.651152      328.21404      29.256198    
       920   21.656461      319.63448      29.62997     
       940   21.654999      285.62808      26.832042    
       960   21.657649      269.13909      32.809776    
       980   21.654145      291.54703      31.58559     
      1000   21.648664      286.9457       32.380036    
      1020   21.65709       321.14464      26.191876    
      1040   21.662176      326.74685      27.027006    
      1060   21.670823      287.86626      29.722511    
      1080   21.678961      325.93366      29.404285    
      1100   21.691273      313.00099      28.569379    
      1120   21.691695      287.86181      28.138507    
      1140   21.699116      320.17337      26.611644    
      1160   21.694494      291.26265      30.291389    
      1180   21.69606       316.36691      28.53071     
      1200   21.713398      313.61122      27.697366    
      1220   21.724486      315.56998      26.888476    
      1240   21.733533      281.31333      26.983429    
      1260   21.731346      298.5712       26.95165     
      1280   21.727485      304.54897      23.480419    
      1300   21.726227      317.92313      25.420203    
      1320   21.728209      305.99043      26.188477    
      1340   21.72926       309.59737      25.063531    
      1360   21.725214      288.9299       25.787523    
      1380   21.73528       292.85066      23.241939    
      1400   21.741875      309.93301      28.776023    
      1420   21.740411      291.09056      29.133141    
      1440   21.743269      309.74456      26.615343    
      1460   21.75013       309.29567      26.118857    
      1480   21.749239      293.71988      25.131753    
      1500   21.748128      255.44901      29.490422    
      1520   21.740237      301.52446      24.511719    
      1540   21.744654      299.9978       27.778809    
      1560   21.743692      297.35144      27.553425    
      1580   21.747292      306.95988      26.723185    
      1600   21.755488      262.16144      22.080202    
      1620   21.758669      285.64605      23.762156    
      1640   21.763786      322.34058      28.157135    
      1660   21.771138      279.07326      28.073408    
      1680   21.782241      325.36441      24.908155    
      1700   21.793309      273.91936      25.258508    
      1720   21.795361      285.04642      26.216633    
      1740   21.790429      274.69498      25.460965    
      1760   21.787232      263.11706      28.377157    
      1780   21.786399      271.1532       25.968338    
      1800   21.776566      284.70021      25.196005    
      1820   21.773724      265.86404      25.385514    
      1840   21.764148      318.64882      26.156936    
      1860   21.749154      338.51147      25.539288    
      1880   21.74397       371.71036      26.802815    
      1900   21.745447      276.61844      22.41918     
      1920   21.746389      285.46346      28.631359    
      1940   21.745491      259.28463      27.61572     
      1960   21.739169      280.19882      27.337657    
      1980   21.729557      288.83508      25.617825    
      2000   21.736401      323.03789      21.573536    
      2020   21.742754      315.99318      23.332009    
      2040   21.737859      274.92372      23.518811    
      2060   21.740705      277.00884      25.850476    
      2080   21.736903      276.06924      23.602143    
      2100   21.736104      323.41724      24.066434    
      2120   21.735455      294.49264      25.246365    
      2140   21.731652      277.02761      22.722156    
      2160   21.723097      289.5553       27.367185    
      2180   21.722577      280.33535      29.652854    
      2200   21.727418      285.29624      22.141666    
      2220   21.726267      320.28387      24.056445    
      2240   21.725265      316.21221      24.937139    
      2260   21.726414      331.91517      23.051748    
      2280   21.709227      292.17039      23.812977    
      2300   21.682635      368.04428      24.164517    
      2320   21.672096      300.68582      29.572127    
      2340   21.667424      340.362        26.520525    
      2360   21.654937      298.22309      30.948168    
      2380   21.654371      305.59619      26.530682    
      2400   21.654214      336.30362      24.166019    
      2420   21.647097      302.48596      21.812636    
      2440   21.643541      303.91942      22.428574    
      2460   21.645996      312.14933      27.947205    
      2480   21.647953      335.49533      29.84878     
      2500   21.649871      321.12577      23.242428    
      2520   21.635427      330.03285      21.615352    
      2540   21.62379       280.6937       24.754922    
      2560   21.616919      300.41514      21.940418    
      2580   21.603733      289.74146      25.155345    
      2600   21.604281      291.21778      23.919138    
      2620   21.599107      293.99439      26.619695    
      2640   21.590098      292.389        26.953897    
      2660   21.5841        335.66036      29.042747    
      2680   21.584747      303.51059      28.046801    
      2700   21.593845      295.53482      31.396851    
      2720   21.603607      343.24986      24.110088    
      2740   21.614148      281.85518      22.24855     
      2760   21.619765      297.69732      27.305896    
      2780   21.620108      352.53501      28.181782    
      2800   21.626473      284.98396      25.101629    
      2820   21.64031       327.28619      24.69117     
      2840   21.64832       325.31873      24.834086    
      2860   21.63414       334.42851      24.690411    
      2880   21.617091      284.7986       28.699877    
      2900   21.613641      318.58328      28.536574    
      2920   21.606519      336.98479      26.585517    
      2940   21.609029      293.14255      22.117336    
      2960   21.615065      253.85021      20.354415    
      2980   21.625558      344.03805      22.902872    
      3000   21.624881      321.95708      27.436333    
      3020   21.619629      302.42157      26.976583    
      3040   21.624078      306.56065      27.80666     
      3060   21.621025      270.63203      25.539803    
      3080   21.62429       304.50603      29.595088    
      3100   21.618188      330.08788      29.439333    
      3120   21.60252       268.49922      29.015176    
      3140   21.586025      284.27916      27.915459    
      3160   21.573942      281.77481      30.177925    
      3180   21.570787      312.66785      30.041814    
      3200   21.561403      268.46893      29.973516    
      3220   21.568808      309.43335      27.947923    
      3240   21.584494      312.6135       28.055949    
      3260   21.591404      323.00198      27.273604    
      3280   21.585046      316.02036      26.59292     
      3300   21.581819      303.65323      32.778044    
      3320   21.576262      328.247        24.918459    
      3340   21.582751      296.93641      25.005499    
      3360   21.584388      268.96134      24.503301    
      3380   21.584604      300.22133      27.958829    
      3400   21.588136      317.58716      25.258479    
      3420   21.579653      322.89314      29.402622    
      3440   21.573018      294.91101      26.248409    
      3460   21.569584      261.67183      23.667211    
      3480   21.561599      311.04975      28.608858    
      3500   21.557718      261.03109      28.198582    
      3520   21.557814      312.20085      25.53148     
      3540   21.552895      312.83054      25.589779    
      3560   21.551801      277.20042      28.331443    
      3580   21.547645      306.37182      30.384705    
      3600   21.545978      283.38278      26.585057    
      3620   21.551262      311.88189      21.691023    
      3640   21.557826      319.37378      25.283424    
      3660   21.56837       322.28419      25.09253     
      3680   21.5727        306.66336      28.806018    
      3700   21.571751      289.99094      28.979753    
      3720   21.579575      317.19261      25.620747    
      3740   21.577672      274.46541      24.409117    
      3760   21.563032      307.30712      24.480444    
      3780   21.558049      263.3251       24.430098    
      3800   21.55405       293.97493      27.956215    
      3820   21.556357      287.1203       26.516374    
      3840   21.549998      290.21212      23.550443    
      3860   21.544533      261.26841      22.676659    
      3880   21.537158      315.31059      22.265094    
      3900   21.529643      310.25647      24.484788    
      3920   21.527454      341.08835      23.153644    
      3940   21.528497      289.12259      22.748371    
      3960   21.53567       321.14147      24.493189    
      3980   21.533202      290.51643      28.765927    
      4000   21.53332       278.90063      22.140561    
      4020   21.526131      300.1604       20.552461    
      4040   21.529956      273.68472      26.14402     
      4060   21.52574       245.3027       23.005828    
      4080   21.521171      277.66101      26.604608    
      4100   21.507626      277.73726      25.588458    
      4120   21.498881      269.90023      25.249581    
      4140   21.504088      283.99909      28.476289    
      4160   21.512716      255.92521      22.503579    
      4180   21.518374      298.82908      24.77009     
      4200   21.526258      315.20749      21.28346     
      4220   21.53173       265.49179      23.643772    
      4240   21.545548      253.89884      27.273536    
      4260   21.558205      328.30711      22.782931    
      4280   21.5581        298.78778      23.047976    
      4300   21.565115      325.98217      22.985729    
      4320   21.574637      330.83206      23.40142     
      4340   21.586679      317.54108      22.864244    
      4360   21.591448      317.94934      20.796224    
      4380   21.606986      340.72383      22.153332    
      4400   21.607982      299.27042      23.093785    
      4420   21.606406      308.80206      21.47816     
      4440   21.59669       320.84344      25.857625    
      4460   21.593638      296.65948      29.788936    
      4480   21.595815      257.43496      27.028068    
      4500   21.607472      322.21008      24.801948    
      4520   21.608255      250.06672      26.232186    
      4540   21.607243      307.95581      26.059283    
      4560   21.60792       300.87746      21.174232    
      4580   21.615146      291.33422      23.03344     
      4600   21.612903      281.4316       24.000159    
      4620   21.602489      237.85804      22.348701    
      4640   21.59993       281.94132      26.858639    
      4660   21.607347      277.44148      26.441034    
      4680   21.612841      312.29886      24.282681    
      4700   21.613607      271.45333      28.25695     
      4720   21.618742      291.19409      24.958752    
      4740   21.619961      289.71689      27.136155    
      4760   21.609688      285.47224      23.595606    
      4780   21.604114      262.07758      22.44016     
      4800   21.591876      284.08899      26.973617    
      4820   21.583357      297.8167       25.472014    
      4840   21.575232      340.87483      21.331995    
      4860   21.560218      338.71462      18.66511     
      4880   21.557481      331.40784      23.464822    
      4900   21.570542      313.7385       21.698879    
      4920   21.574173      304.09969      23.477334    
      4940   21.573884      325.99549      22.093935    
      4960   21.579023      307.33861      25.032886    
      4980   21.593069      288.13299      22.53106     
      5000   21.599818      285.53947      22.199416    
Loop time of 0.152659 on 1 procs for 5000 steps with 115 atoms

Performance: 2829.833 ns/day, 0.008 hours/ns, 32752.692 timesteps/s, 3.767 Matom-step/s
94.0% CPU use with 1 MPI tasks x 1 OpenMP threads

MPI task timing breakdown:
Section |  min time  |  avg time  |  max time  |%varavg| %total
---------------------------------------------------------------
Pair    | 0.01867    | 0.01867    | 0.01867    |   0.0 | 12.23
Bond    | 0.051681   | 0.051681   | 0.051681   |   0.0 | 33.85
Neigh   | 0.0034135  | 0.0034135  | 0.0034135  |   0.0 |  2.24
Comm    | 0.0019717  | 0.0019717  | 0.0019717  |   0.0 |  1.29
Output  | 0.049585   | 0.049585   | 0.049585   |   0.0 | 32.48
Modify  | 0.022158   | 0.022158   | 0.022158   |   0.0 | 14.51
Other   |            | 0.00518    |            |       |  3.39

Nlocal:            115 ave         115 max         115 min
Histogram: 1 0 0 0 0 0 0 0 0 0
Nghost:            138 ave         138 max         138 min
Histogram: 1 0 0 0 0 0 0 0 0 0
Neighs:            844 ave         844 max         844 min
Histogram: 1 0 0 0 0 0 0 0 0 0

Total # of neighbors = 844
Ave neighs/atom = 7.3391304
Ave special neighs/atom = 8.4
Neighbor list builds = 48
Dangerous builds = 0
Total wall time: 0:00:00
