ITEM: TIMESTEP
0
ITEM: NUMBER OF ATOMS
115
ITEM: BOX BOUNDS pp pp pp
-2.8628399999999999e+01 2.8628399999999999e+01
-2.8628399999999999e+01 2.8628399999999999e+01
-2.8628399999999999e+01 2.8628399999999999e+01
ITEM: ATOMS id mol type x y z
74 5 1 12.0091 -12.635 -11.3357
75 5 1 12.8753 -11.6301 -12.0211
76 5 3 12.9172 -11.7199 -13.2792
77 5 3 14.0841 -11.3287 -11.369
78 5 1 14.9788 -10.2792 -11.6615
87 5 2 11.0034 -12.6646 -11.807
88 5 2 11.8899 -12.3687 -10.2647
89 5 2 12.4751 -13.6406 -11.4075
83 5 1 16.3156 -10.3639 -11.0978
84 5 1 17.0737 -11.6778 -11.1227
85 5 3 16.4597 -12.7616 -10.923
86 5 3 18.371 -11.6948 -10.6065
94 5 2 19.0034 -12.462 -10.7927
79 5 1 14.3915 -8.97779 -11.6787
80 5 1 15.2285 -7.89259 -11.9506
90 5 2 13.4052 -8.88847 -12.1116
91 5 2 14.7602 -6.91843 -11.948
81 5 1 16.5154 -7.95127 -11.4125
82 5 1 17.1306 -9.21917 -11.386
92 5 2 17.1603 -7.11512 -11.6417
93 5 2 18.1274 -9.19732 -10.9714
97 6 3 16.084 17.8365 -9.86935
110 6 2 15.6418 15.9158 -7.99758
95 6 1 15.1758 16.9213 -7.92584
108 6 2 14.1701 16.8918 -8.39712
109 6 2 15.0567 17.1876 -6.85485
96 6 1 16.0421 17.9262 -8.61119
98 6 3 17.2509 18.2277 -7.95915
99 6 1 18.1455 19.2771 -8.25159
100 6 1 17.5582 20.5785 -8.26886
101 6 1 18.3952 21.6637 -8.54074
102 6 1 19.6822 21.6051 -8.00265
103 6 1 20.2973 20.3372 -7.97613
104 6 1 19.4823 19.1924 -7.68795
105 6 1 20.2405 17.8785 -7.71285
106 6 3 19.6264 16.7947 -7.51307
107 6 3 21.5377 17.8616 -7.19658
111 6 2 16.5719 20.6679 -8.70172
114 6 2 21.2942 20.359 -7.56148
115 6 2 22.1701 17.0943 -7.38283
112 6 2 17.9269 22.6379 -8.53811
113 6 2 20.327 22.4412 -8.23186
32 3 1 15.5932 -6.2011 6.88625
45 3 2 14.5875 -6.23065 6.41496
46 3 2 15.4741 -5.93483 7.95724
33 3 1 16.4594 -5.19619 6.20089
34 3 3 16.5014 -5.28592 4.94273
35 3 3 17.6683 -4.89477 6.85294
36 3 1 18.5629 -3.84527 6.5605
41 3 1 19.8997 -3.93001 7.12414
42 3 1 20.6578 -5.2439 7.09923
43 3 3 20.0438 -6.32769 7.29901
44 3 3 21.9551 -5.26083 7.61551
47 3 2 16.0592 -7.20664 6.8145
52 3 2 22.5875 -6.02809 7.42926
37 3 1 17.9756 -2.54387 6.54324
38 3 1 18.8126 -1.45867 6.27137
39 3 1 20.0996 -1.51735 6.80945
40 3 1 20.7147 -2.78525 6.83597
48 3 2 16.9893 -2.45455 6.11037
49 3 2 18.3443 -0.4845 6.27399
50 3 2 20.7444 -0.681195 6.58024
51 3 2 21.7116 -2.76339 7.25062
54 4 1 5.39523 18.0727 9.40234
55 4 3 5.43715 17.9829 8.14418
59 4 1 7.7484 21.8102 9.4728
69 4 2 5.92509 20.8143 9.31181
70 4 2 7.28006 22.7844 9.47542
11 2 1 -12.3052 -24.5705 12.4934
12 2 1 -11.439 -23.5656 11.808
13 2 3 -11.3971 -23.6553 10.5498
14 2 3 -10.2302 -23.2642 12.46
24 2 2 -13.3109 -24.6001 12.0221
25 2 2 -12.4244 -24.3042 13.5643
26 2 2 -11.8392 -25.5761 12.4216
20 2 1 -7.99873 -22.2994 12.7312
21 2 1 -7.24062 -23.6133 12.7063
22 2 3 -7.85462 -24.6971 12.9061
23 2 3 -5.94336 -23.6302 13.2226
31 2 2 -5.31092 -24.3975 13.0364
16 2 1 -9.92287 -20.9133 12.1503
27 2 2 -10.9091 -20.824 11.7175
28 2 2 -9.55418 -18.8539 11.8811
15 2 1 -9.33555 -22.2147 12.1676
17 2 1 -9.08584 -19.8281 11.8785
18 2 1 -7.79889 -19.8868 12.4165
19 2 1 -7.18376 -21.1547 12.4431
29 2 2 -7.15406 -19.0506 12.1873
30 2 2 -6.18689 -21.1328 12.8577
1 1 1 18.8473 7.89081 13.2575
2 1 1 20.1542 7.63427 13.3476
3 1 1 21.1512 8.56617 13.9222
4 1 3 20.778 9.3804 14.812
6 1 2 18.4122 8.79945 13.649
7 1 2 18.1957 7.17684 12.7753
8 1 2 20.5135 6.72771 12.8807
5 1 4 22.5052 8.09662 14.0223
9 1 2 22.8486 7.41611 13.3125
10 1 2 23.2227 8.74727 14.4047
68 4 2 4.99501 16.0622 10.016
53 4 1 4.52902 17.0678 10.0877
56 4 3 6.60403 18.3741 10.0544
57 4 1 7.49869 19.4236 9.76195
58 4 1 6.91137 20.725 9.74467
60 4 1 9.03535 21.7515 10.0109
62 4 1 8.83551 19.3389 10.3256
64 4 3 8.97962 16.9412 10.5005
66 4 2 3.52332 17.0382 9.61641
67 4 2 4.40983 17.3341 11.1587
61 4 1 9.65048 20.4836 10.0374
63 4 1 9.59362 18.025 10.3007
65 4 3 10.8909 18.008 10.817
72 4 2 10.6473 20.5055 10.4521
73 4 2 11.5233 17.2408 10.6307
71 4 2 9.68018 22.5877 9.78167
ITEM: TIMESTEP
20
ITEM: NUMBER OF ATOMS
115
ITEM: BOX BOUNDS pp pp pp
-2.8628399999999999e+01 2.8628399999999999e+01
-2.8628399999999999e+01 2.8628399999999999e+01
-2.8628399999999999e+01 2.8628399999999999e+01
ITEM: ATOMS id mol type x y z
74 5 1 11.9572 -12.5919 -11.3101
75 5 1 12.8337 -11.6041 -12.0361
76 5 3 12.8839 -11.7099 -13.2891
77 5 3 14.0649 -11.296 -11.4401
78 5 1 15.0584 -10.2702 -11.6824
87 5 2 10.9301 -12.6412 -11.7454
88 5 2 11.91 -12.3107 -10.2306
89 5 2 12.434 -13.6141 -11.3512
83 5 1 16.3302 -10.3288 -11.0979
84 5 1 17.0942 -11.6764 -11.0856
85 5 3 16.4387 -12.7744 -10.8902
86 5 3 18.3771 -11.7485 -10.6319
94 5 2 18.9603 -12.5839 -10.6958
79 5 1 14.4164 -8.98375 -11.6494
80 5 1 15.2566 -7.85414 -11.9756
90 5 2 13.4117 -8.91047 -12.0309
91 5 2 14.8721 -6.88678 -11.9914
81 5 1 16.5646 -7.96155 -11.4144
82 5 1 17.1624 -9.2113 -11.2934
92 5 2 17.2198 -7.1162 -11.5785
93 5 2 18.152 -9.20771 -10.7859
97 6 3 16.1317 17.8371 -9.80959
110 6 2 15.6548 15.9089 -7.91429
95 6 1 15.1664 16.9149 -7.92036
108 6 2 14.1675 16.9089 -8.38844
109 6 2 15.0626 17.1773 -6.85247
96 6 1 16.0104 17.9381 -8.57367
98 6 3 17.1956 18.2286 -7.93952
99 6 1 18.0898 19.306 -8.22657
100 6 1 17.5156 20.6038 -8.27141
101 6 1 18.3855 21.707 -8.51646
102 6 1 19.6656 21.6818 -7.96361
103 6 1 20.2963 20.3857 -7.94476
104 6 1 19.4925 19.2338 -7.71592
105 6 1 20.2413 17.9216 -7.65375
106 6 3 19.5638 16.8315 -7.53814
107 6 3 21.5339 17.7824 -7.11427
111 6 2 16.5244 20.7684 -8.76788
114 6 2 21.3711 20.3595 -7.63135
115 6 2 22.1718 17.0362 -7.44284
112 6 2 17.929 22.6597 -8.42546
113 6 2 20.3168 22.4938 -8.31292
32 3 1 15.5797 -6.14515 6.90611
45 3 2 14.5669 -6.15764 6.5237
46 3 2 15.694 -5.98433 8.02472
33 3 1 16.4686 -5.19392 6.22481
34 3 3 16.4903 -5.2693 4.94685
35 3 3 17.6758 -4.90028 6.85255
36 3 1 18.5318 -3.84952 6.53628
41 3 1 19.8677 -3.90601 7.19212
42 3 1 20.6203 -5.20971 7.18267
43 3 3 19.975 -6.27653 7.25721
44 3 3 21.9101 -5.23023 7.65235
47 3 2 16.0143 -7.1584 6.68307
52 3 2 22.5952 -5.99195 7.38416
37 3 1 17.9732 -2.55263 6.50916
38 3 1 18.7644 -1.42752 6.26429
39 3 1 20.1018 -1.50764 6.84965
40 3 1 20.6606 -2.7884 6.90257
48 3 2 16.9812 -2.48195 6.12858
49 3 2 18.233 -0.454066 6.3508
50 3 2 20.7839 -0.727371 6.64431
51 3 2 21.5709 -2.69424 7.46698
54 4 1 5.38984 18.0045 9.35821
55 4 3 5.42045 17.9223 8.09831
59 4 1 7.72713 21.8637 9.51166
69 4 2 5.91685 20.8736 9.40627
70 4 2 7.20371 22.8341 9.64443
11 2 1 -12.3294 -24.5475 12.5177
12 2 1 -11.4426 -23.5613 11.8259
13 2 3 -11.392 -23.7105 10.5621
14 2 3 -10.2082 -23.2925 12.44
24 2 2 -13.3203 -24.5933 12.0733
25 2 2 -12.4371 -24.2658 13.5569
26 2 2 -11.9375 -25.5892 12.4823
20 2 1 -7.95776 -22.3242 12.6886
21 2 1 -7.18448 -23.6338 12.7072
22 2 3 -7.81656 -24.682 12.8453
23 2 3 -5.94742 -23.6816 13.284
31 2 2 -5.25183 -24.3436 12.8762
16 2 1 -9.9055 -20.9275 12.2028
27 2 2 -10.9623 -20.8473 11.9589
28 2 2 -9.52284 -18.8594 11.7345
15 2 1 -9.31523 -22.2047 12.1697
17 2 1 -9.1156 -19.8288 11.8849
18 2 1 -7.82366 -19.9012 12.4455
19 2 1 -7.17179 -21.1147 12.4872
29 2 2 -7.227 -19.0091 12.2576
30 2 2 -6.2128 -21.1235 12.91
1 1 1 18.8411 7.8997 13.3057
2 1 1 20.136 7.65325 13.313
3 1 1 21.175 8.56805 13.8836
4 1 3 20.7345 9.36289 14.7845
6 1 2 18.409 8.79834 13.6688
7 1 2 18.1696 7.12006 12.9191
8 1 2 20.4596 6.70124 12.9014
5 1 4 22.5411 8.08892 14.0182
9 1 2 22.8979 7.44768 13.344
10 1 2 23.2833 8.81288 14.3354
68 4 2 4.99398 16.066 10.0687
53 4 1 4.54993 17.0747 10.1253
56 4 3 6.56861 18.3545 10.0358
57 4 1 7.49089 19.4161 9.72673
58 4 1 6.94924 20.7534 9.76877
60 4 1 9.02019 21.7658 9.97994
62 4 1 8.82075 19.3657 10.2581
64 4 3 8.97688 16.9682 10.4484
66 4 2 3.54678 16.9072 9.68866
67 4 2 4.46006 17.4143 11.2092
61 4 1 9.65308 20.4551 10.0406
63 4 1 9.58019 18.037 10.3639
65 4 3 10.9152 18.0457 10.8551
72 4 2 10.5823 20.465 10.4714
73 4 2 11.5872 17.345 10.575
71 4 2 9.64608 22.6054 9.73963
ITEM: TIMESTEP
40
ITEM: NUMBER OF ATOMS
115
ITEM: BOX BOUNDS pp pp pp
-2.8628399999999999e+01 2.8628399999999999e+01
-2.8628399999999999e+01 2.8628399999999999e+01
-2.8628399999999999e+01 2.8628399999999999e+01
ITEM: ATOMS id mol type x y z
74 5 1 12.0364 -12.5912 -11.2943
75 5 1 12.8425 -11.5306 -12.015
76 5 3 12.8271 -11.7769 -13.2412
77 5 3 14.0955 -11.3183 -11.4834
78 5 1 15.0228 -10.2933 -11.6762
87 5 2 10.9505 -12.6548 -11.7156
88 5 2 12.069 -12.409 -10.2016
89 5 2 12.5064 -13.5633 -11.4567
83 5 1 16.3469 -10.4113 -11.0764
84 5 1 17.1001 -11.7115 -11.0639
85 5 3 16.413 -12.79 -10.9391
86 5 3 18.4371 -11.8049 -10.6471
94 5 2 18.8955 -12.6528 -10.3965
79 5 1 14.4554 -8.96621 -11.701
80 5 1 15.343 -7.91887 -11.9662
90 5 2 13.4951 -8.82333 -12.2495
91 5 2 14.8493 -6.92411 -12.0444
81 5 1 16.6021 -7.97288 -11.4031
82 5 1 17.2312 -9.23821 -11.2714
92 5 2 17.2857 -7.16439 -11.6334
93 5 2 18.1269 -9.14848 -10.6516
97 6 3 16.1033 17.7575 -9.83181
110 6 2 15.5497 15.8323 -7.9801
95 6 1 15.109 16.8509 -7.84447
108 6 2 14.0941 16.9299 -8.31736
109 6 2 14.935 17.0482 -6.78627
96 6 1 16.0223 17.8866 -8.55766
98 6 3 17.2548 18.2549 -7.92697
99 6 1 18.1669 19.3122 -8.2149
100 6 1 17.5335 20.57 -8.26007
101 6 1 18.3625 21.7331 -8.44634
102 6 1 19.6514 21.6588 -7.92289
103 6 1 20.2393 20.4043 -7.96927
104 6 1 19.469 19.291 -7.6499
105 6 1 20.2464 17.9955 -7.67377
106 6 3 19.5402 16.9385 -7.50965
107 6 3 21.4915 17.7362 -7.09217
111 6 2 16.5314 20.6474 -8.68296
114 6 2 21.1805 20.5593 -7.52989
115 6 2 22.0655 16.931 -7.28531
112 6 2 17.8594 22.7481 -8.43377
113 6 2 20.2846 22.5159 -7.95571
32 3 1 15.5002 -6.10828 7.00403
45 3 2 14.4921 -5.72327 6.62598
46 3 2 15.6933 -6.01144 8.08932
33 3 1 16.4921 -5.23284 6.28527
34 3 3 16.5026 -5.32823 4.98993
35 3 3 17.6775 -4.86956 6.90566
36 3 1 18.6299 -3.82575 6.58422
41 3 1 19.8828 -3.84473 7.29814
42 3 1 20.567 -5.19681 7.1831
43 3 3 19.9603 -6.31333 7.22548
44 3 3 21.83 -5.21062 7.71847
47 3 2 15.6369 -7.17762 6.7303
52 3 2 22.4276 -5.94575 7.53983
37 3 1 18.0389 -2.536 6.47754
38 3 1 18.8609 -1.48332 6.295
39 3 1 20.1336 -1.44405 6.88413
40 3 1 20.7123 -2.70334 7.08874
48 3 2 17.1209 -2.45157 5.91257
49 3 2 18.4177 -0.519153 6.23684
50 3 2 20.7841 -0.661214 6.50279
51 3 2 21.6961 -2.70344 7.49204
54 4 1 5.36284 18.0227 9.34096
55 4 3 5.43066 17.8681 8.09094
59 4 1 7.66735 21.7846 9.50689
69 4 2 5.85995 20.8069 9.41658
70 4 2 7.17464 22.814 9.4214
11 2 1 -12.308 -24.5553 12.5187
12 2 1 -11.4508 -23.5913 11.7997
13 2 3 -11.3481 -23.6886 10.5687
14 2 3 -10.1819 -23.3005 12.3483
24 2 2 -13.2846 -24.5968 12.0944
25 2 2 -12.4176 -24.2493 13.6413
26 2 2 -11.8535 -25.5393 12.4784
20 2 1 -7.97053 -22.2627 12.7391
21 2 1 -7.1898 -23.5629 12.7168
22 2 3 -7.79504 -24.6377 12.9053
23 2 3 -5.88963 -23.6194 13.3202
31 2 2 -5.41039 -24.4168 12.9922
16 2 1 -9.90833 -20.8907 12.1862
27 2 2 -10.8883 -20.8228 11.792
28 2 2 -9.46303 -18.8155 11.8465
15 2 1 -9.30384 -22.1995 12.1015
17 2 1 -9.03185 -19.807 11.8529
18 2 1 -7.80292 -19.8598 12.5112
19 2 1 -7.12301 -21.1297 12.44
29 2 2 -7.14828 -19.0215 12.4521
30 2 2 -6.10306 -21.2306 12.8232
1 1 1 18.7588 7.8968 13.3043
2 1 1 20.0872 7.65914 13.3343
3 1 1 21.1324 8.58705 13.8321
4 1 3 20.7175 9.28393 14.8086
6 1 2 18.227 8.74359 13.8006
7 1 2 18.0932 7.2463 12.7596
8 1 2 20.3766 6.82864 12.7863
5 1 4 22.4952 8.13811 13.9146
9 1 2 22.8292 7.56841 13.1434
10 1 2 23.2207 8.56593 14.494
68 4 2 4.88718 16.018 10.0472
53 4 1 4.57359 17.0364 10.1522
56 4 3 6.59656 18.3885 9.99355
57 4 1 7.4522 19.4144 9.69903
58 4 1 6.80827 20.6834 9.85218
60 4 1 8.97513 21.7299 10.0032
62 4 1 8.77531 19.3317 10.3535
64 4 3 9.00693 16.9799 10.3263
66 4 2 3.57505 16.9738 9.73185
67 4 2 4.49192 17.3976 11.1851
61 4 1 9.57489 20.4193 9.97748
63 4 1 9.60513 18.034 10.3042
65 4 3 10.8672 18.0678 10.8903
72 4 2 10.5729 20.529 10.3022
73 4 2 11.6057 17.4593 10.6049
71 4 2 9.49523 22.5867 9.75584
ITEM: TIMESTEP
60
ITEM: NUMBER OF ATOMS
115
ITEM: BOX BOUNDS pp pp pp
-2.8628399999999999e+01 2.8628399999999999e+01
-2.8628399999999999e+01 2.8628399999999999e+01
-2.8628399999999999e+01 2.8628399999999999e+01
ITEM: ATOMS id mol type x y z
74 5 1 11.9977 -12.5609 -11.2618
75 5 1 12.8398 -11.5896 -12.0319
76 5 3 12.8409 -11.7487 -13.3181
77 5 3 14.0806 -11.38 -11.3812
78 5 1 14.9806 -10.2753 -11.7063
87 5 2 11.0198 -12.5628 -11.6928
88 5 2 11.9964 -12.3404 -10.1474
89 5 2 12.5679 -13.495 -11.4053
83 5 1 16.3591 -10.3918 -11.1414
84 5 1 17.1095 -11.7465 -11.0323
85 5 3 16.4552 -12.8432 -10.9108
86 5 3 18.4602 -11.7804 -10.6662
94 5 2 18.9984 -12.6305 -10.4695
79 5 1 14.4715 -8.97957 -11.816
80 5 1 15.3658 -7.8818 -12.0105
90 5 2 13.5353 -8.77867 -12.2756
91 5 2 14.855 -6.95377 -12.0763
81 5 1 16.6193 -7.93171 -11.3439
82 5 1 17.1943 -9.22501 -11.2995
92 5 2 17.3169 -7.06402 -11.4315
93 5 2 18.1388 -9.28965 -10.7389
97 6 3 16.1491 17.6536 -9.81396
110 6 2 15.5329 15.9272 -8.03773
95 6 1 15.1535 16.9752 -7.94158
108 6 2 14.1644 17.0712 -8.38876
109 6 2 15.023 17.2709 -6.89568
96 6 1 16.0829 17.8978 -8.56418
98 6 3 17.2217 18.2838 -7.89966
99 6 1 18.1212 19.2985 -8.20997
100 6 1 17.5183 20.6441 -8.27035
101 6 1 18.2873 21.7194 -8.43763
102 6 1 19.5465 21.6087 -7.86599
103 6 1 20.2413 20.3814 -7.87721
104 6 1 19.4581 19.2601 -7.59951
105 6 1 20.2059 17.976 -7.67454
106 6 3 19.5448 16.9449 -7.44175
107 6 3 21.5102 17.8357 -7.09403
111 6 2 16.5492 20.7471 -8.70959
114 6 2 21.366 20.4302 -7.59703
115 6 2 22.1618 17.0046 -7.11785
112 6 2 17.8375 22.7283 -8.38214
113 6 2 20.1817 22.4588 -8.04661
32 3 1 15.5364 -6.08568 7.09998
45 3 2 14.5674 -6.13106 6.56404
46 3 2 15.4326 -5.67427 8.08209
33 3 1 16.4977 -5.19119 6.30817
34 3 3 16.5514 -5.37022 5.01047
35 3 3 17.6759 -4.85699 6.96082
36 3 1 18.5966 -3.81055 6.69859
41 3 1 19.8883 -3.90222 7.25853
42 3 1 20.6275 -5.22437 7.14785
43 3 3 20.0335 -6.30331 7.10364
44 3 3 21.8732 -5.25245 7.75025
47 3 2 16.0116 -7.11371 7.12881
52 3 2 22.5326 -6.05356 7.64545
37 3 1 18.0984 -2.52994 6.41864
38 3 1 18.9477 -1.41836 6.19761
39 3 1 20.1902 -1.45128 6.95408
40 3 1 20.7605 -2.75243 7.15722
48 3 2 17.2261 -2.48844 5.85395
49 3 2 18.4809 -0.471571 6.04996
50 3 2 20.8311 -0.564101 6.83196
51 3 2 21.782 -2.74006 7.55015
54 4 1 5.40815 18.0074 9.37546
55 4 3 5.45039 17.9373 8.11554
59 4 1 7.61141 21.7972 9.48219
69 4 2 5.76631 20.7938 9.45752
70 4 2 7.06254 22.7441 9.40311
11 2 1 -12.2015 -24.6031 12.4649
12 2 1 -11.3682 -23.6028 11.7836
13 2 3 -11.2996 -23.655 10.5245
14 2 3 -10.1153 -23.2582 12.3862
24 2 2 -13.268 -24.5866 12.0246
25 2 2 -12.3321 -24.4374 13.5079
26 2 2 -11.8171 -25.6858 12.3767
20 2 1 -7.87141 -22.2056 12.6291
21 2 1 -7.24037 -23.5383 12.6909
22 2 3 -7.83442 -24.6269 12.999
23 2 3 -5.99315 -23.5318 13.3078
31 2 2 -5.28641 -24.2693 13.265
16 2 1 -9.77756 -20.897 12.0637
27 2 2 -10.7798 -20.8085 11.6352
28 2 2 -9.62624 -18.8684 12.0869
15 2 1 -9.21497 -22.2202 12.131
17 2 1 -9.06009 -19.7878 11.9785
18 2 1 -7.79709 -19.8312 12.4848
19 2 1 -7.11475 -21.0459 12.3365
29 2 2 -7.18724 -19.0149 12.3855
30 2 2 -6.02543 -21.0658 12.6277
1 1 1 18.7812 7.8699 13.2366
2 1 1 20.0678 7.61043 13.2999
3 1 1 21.0795 8.52629 13.9193
4 1 3 20.719 9.27589 14.8759
6 1 2 18.2526 8.70673 13.5817
7 1 2 18.1748 7.10853 12.7558
8 1 2 20.4179 6.71204 12.8072
5 1 4 22.4923 8.18477 13.9115
9 1 2 22.8636 7.64145 13.1353
10 1 2 23.2127 8.715 14.3119
68 4 2 5.04923 16.0135 10.0612
53 4 1 4.55446 17.0255 10.1145
56 4 3 6.50879 18.3543 10.0528
57 4 1 7.3709 19.4688 9.84466
58 4 1 6.80961 20.6739 9.77449
60 4 1 8.91145 21.6516 10.0574
62 4 1 8.76209 19.3458 10.336
64 4 3 9.03258 16.9731 10.2656
66 4 2 3.57589 16.8354 9.65409
67 4 2 4.42402 17.3446 11.1505
61 4 1 9.56196 20.4428 10.0133
63 4 1 9.57942 18.0848 10.2714
65 4 3 10.8387 18.1191 10.9308
72 4 2 10.5691 20.5235 10.279
73 4 2 11.6508 17.5282 10.6542
71 4 2 9.52581 22.5293 9.7362
ITEM: TIMESTEP
80
ITEM: NUMBER OF ATOMS
115
ITEM: BOX BOUNDS pp pp pp
-2.8628399999999999e+01 2.8628399999999999e+01
-2.8628399999999999e+01 2.8628399999999999e+01
-2.8628399999999999e+01 2.8628399999999999e+01
ITEM: ATOMS id mol type x y z
74 5 1 12.0454 -12.6083 -11.355
75 5 1 12.8516 -11.5943 -12.0664
76 5 3 12.8684 -11.7635 -13.3344
77 5 3 14.0687 -11.2726 -11.3882
78 5 1 15.026 -10.2743 -11.6629
87 5 2 11.0743 -12.7447 -11.8973
88 5 2 11.8401 -12.0782 -10.3635
89 5 2 12.5953 -13.587 -11.1516
83 5 1 16.3612 -10.3624 -11.0117
84 5 1 17.1172 -11.6905 -11.0794
85 5 3 16.5485 -12.8283 -10.8867
86 5 3 18.4497 -11.721 -10.6823
94 5 2 18.9336 -12.6397 -10.6097
79 5 1 14.4263 -8.96254 -11.8075
80 5 1 15.3495 -7.90774 -12.1347
90 5 2 13.4816 -8.81632 -12.4345
91 5 2 14.9643 -6.95771 -12.3109
81 5 1 16.4999 -7.95863 -11.4072
82 5 1 17.1666 -9.17314 -11.2403
92 5 2 17.1136 -7.13476 -11.5089
93 5 2 18.2149 -9.0734 -10.8555
97 6 3 16.2725 17.5303 -9.8933
110 6 2 15.6369 16.0604 -7.90013
95 6 1 15.1575 17.0401 -7.90908
108 6 2 14.2085 16.9644 -8.37928
109 6 2 14.9977 17.4378 -6.86106
96 6 1 16.0889 17.9234 -8.6718
98 6 3 17.2482 18.272 -7.93946
99 6 1 18.0974 19.2978 -8.27795
100 6 1 17.5002 20.5832 -8.26443
101 6 1 18.367 21.685 -8.45981
102 6 1 19.6617 21.6811 -7.85347
103 6 1 20.242 20.4006 -7.87389
104 6 1 19.4025 19.2434 -7.62999
105 6 1 20.1677 17.9402 -7.54835
106 6 3 19.4951 16.8674 -7.40777
107 6 3 21.5243 17.94 -7.08318
111 6 2 16.5732 20.6713 -8.834
114 6 2 21.1637 20.4014 -7.34889
115 6 2 22.0665 17.1412 -7.15134
112 6 2 17.943 22.6088 -8.38457
113 6 2 20.3108 22.4675 -8.08657
32 3 1 15.6179 -6.14955 7.07366
45 3 2 14.6508 -6.48202 6.66359
46 3 2 15.3746 -5.57479 7.97125
33 3 1 16.4213 -5.1911 6.30171
34 3 3 16.6063 -5.41864 5.07996
35 3 3 17.6093 -4.77056 6.98783
36 3 1 18.5454 -3.81482 6.57749
41 3 1 19.8238 -3.92988 7.21736
42 3 1 20.6418 -5.25028 7.08064
43 3 3 20.0097 -6.36814 7.12435
44 3 3 21.8261 -5.21704 7.7876
47 3 2 16.302 -7.0655 7.26564
52 3 2 22.6337 -5.82874 7.68902
37 3 1 18.1152 -2.41554 6.39104
38 3 1 19.0531 -1.33369 6.22322
39 3 1 20.231 -1.49813 6.92218
40 3 1 20.6832 -2.78537 7.10954
48 3 2 17.1628 -2.13899 5.98582
49 3 2 18.6798 -0.319463 6.20589
50 3 2 20.9225 -0.657603 6.93125
51 3 2 21.5705 -2.8059 7.73242
54 4 1 5.32604 18.0629 9.36955
55 4 3 5.52226 17.9239 8.12625
59 4 1 7.64605 21.8213 9.54555
69 4 2 5.92702 20.9375 9.1394
70 4 2 7.09989 22.7495 9.63255
11 2 1 -12.129 -24.5769 12.4606
12 2 1 -11.2558 -23.5601 11.7405
13 2 3 -11.275 -23.6081 10.4692
14 2 3 -10.1352 -23.1928 12.4184
24 2 2 -13.1548 -24.6668 12.0682
25 2 2 -12.1865 -24.4571 13.5154
26 2 2 -11.6995 -25.5833 12.3067
20 2 1 -7.88703 -22.1635 12.6861
21 2 1 -7.21095 -23.5441 12.7918
22 2 3 -7.88167 -24.6061 12.9536
23 2 3 -5.98168 -23.4979 13.3287
31 2 2 -5.24058 -24.0873 13.1273
16 2 1 -9.9583 -20.8491 12.0646
27 2 2 -10.8527 -20.7763 11.4349
28 2 2 -9.60249 -18.7748 12.0637
15 2 1 -9.27743 -22.13 12.1263
17 2 1 -9.1285 -19.6996 11.9941
18 2 1 -7.80302 -19.7582 12.4639
19 2 1 -7.13136 -20.9928 12.3078
29 2 2 -7.17479 -18.8859 12.2744
30 2 2 -6.11874 -20.9885 12.6291
1 1 1 18.7972 7.75653 13.1732
2 1 1 20.0686 7.53929 13.3235
3 1 1 21.0414 8.46114 13.9845
4 1 3 20.6333 9.24051 14.8828
6 1 2 18.2754 8.59487 13.562
7 1 2 18.2239 7.03816 12.6958
8 1 2 20.4589 6.64755 12.838
5 1 4 22.4549 8.19088 14.003
9 1 2 22.8534 7.57556 13.2474
10 1 2 23.1509 8.87151 14.4471
68 4 2 5.09413 16.0576 9.95683
53 4 1 4.52721 16.9961 10.0132
56 4 3 6.46868 18.3775 10.1445
57 4 1 7.43625 19.4188 9.80416
58 4 1 6.79586 20.7591 9.72722
60 4 1 8.88566 21.7193 10.0699
62 4 1 8.77331 19.3194 10.343
64 4 3 9.03084 17.0692 10.286
66 4 2 3.57411 16.7274 9.45133
67 4 2 4.20291 17.3115 11.06
61 4 1 9.53762 20.5418 10.0207
63 4 1 9.60819 18.1327 10.2358
65 4 3 10.8159 18.1362 11.039
72 4 2 10.5211 20.6069 10.5207
73 4 2 11.5031 17.4057 10.9598
71 4 2 9.48321 22.6216 9.98439
ITEM: TIMESTEP
100
ITEM: NUMBER OF ATOMS
115
ITEM: BOX BOUNDS pp pp pp
-2.8628399999999999e+01 2.8628399999999999e+01
-2.8628399999999999e+01 2.8628399999999999e+01
-2.8628399999999999e+01 2.8628399999999999e+01
ITEM: ATOMS id mol type x y z
74 5 1 12.1137 -12.6712 -11.3702
75 5 1 12.9189 -11.6528 -12.0797
76 5 3 12.9701 -11.8009 -13.3524
77 5 3 14.09 -11.2033 -11.3921
78 5 1 15.0909 -10.2699 -11.6831
87 5 2 11.1367 -12.7117 -11.971
88 5 2 11.9512 -12.3373 -10.3919
89 5 2 12.6481 -13.6593 -11.4752
83 5 1 16.3045 -10.392 -10.9897
84 5 1 17.1293 -11.6482 -11.0451
85 5 3 16.5449 -12.7383 -10.8751
86 5 3 18.4913 -11.6356 -10.6947
94 5 2 19.2091 -12.2725 -11.0014
79 5 1 14.5088 -9.01896 -11.8233
80 5 1 15.3596 -8.00119 -12.1055
90 5 2 13.5601 -8.96036 -12.2576
91 5 2 14.8547 -7.02684 -12.3784
81 5 1 16.5281 -7.92458 -11.3307
82 5 1 17.1401 -9.20602 -11.182
92 5 2 17.1633 -7.09043 -11.5477
93 5 2 18.076 -9.16088 -10.6577
97 6 3 16.3077 17.4282 -9.8764
110 6 2 15.5024 15.9837 -7.80376
95 6 1 15.118 17.0609 -7.8364
108 6 2 14.0777 17.0536 -8.19257
109 6 2 15.1483 17.5119 -6.83275
96 6 1 16.0652 17.8245 -8.69312
98 6 3 17.2382 18.2571 -8.11837
99 6 1 18.1523 19.3211 -8.37041
100 6 1 17.5181 20.6199 -8.30892
101 6 1 18.3662 21.7262 -8.42
102 6 1 19.6587 21.6938 -7.89774
103 6 1 20.249 20.4165 -7.83648
104 6 1 19.4244 19.2461 -7.63775
105 6 1 20.2001 17.9662 -7.48015
106 6 3 19.5983 16.8524 -7.39544
107 6 3 21.5031 17.9903 -7.02235
111 6 2 16.5462 20.7879 -8.71994
114 6 2 21.2324 20.4178 -7.49704
115 6 2 22.1443 17.2111 -7.26701
112 6 2 17.8535 22.7421 -8.5797
113 6 2 20.3412 22.5137 -8.09397
32 3 1 15.5901 -6.18035 7.11769
45 3 2 14.6788 -6.29282 6.59551
46 3 2 15.3445 -5.85006 8.17012
33 3 1 16.4364 -5.20988 6.30288
34 3 3 16.567 -5.43377 5.05098
35 3 3 17.5484 -4.71258 6.94794
36 3 1 18.5157 -3.73604 6.5413
41 3 1 19.8347 -3.91958 7.18857
42 3 1 20.5792 -5.2469 7.18474
43 3 3 19.965 -6.36619 7.14834
44 3 3 21.8735 -5.33141 7.77509
47 3 2 16.1037 -7.14734 7.12895
52 3 2 22.4773 -6.02906 7.34067
37 3 1 18.0538 -2.38906 6.35071
38 3 1 19.0349 -1.40759 6.15451
39 3 1 20.2486 -1.52581 6.81792
40 3 1 20.7672 -2.85376 7.10412
48 3 2 17.2977 -2.21318 5.63582
49 3 2 18.6762 -0.409963 5.9299
50 3 2 20.9688 -0.807477 6.56544
51 3 2 21.6883 -2.88813 7.65756
54 4 1 5.40845 18.0371 9.39516
55 4 3 5.54107 17.7999 8.19347
59 4 1 7.56364 21.8522 9.60597
69 4 2 5.81817 20.7881 9.29331
70 4 2 7.04396 22.7515 9.76097
11 2 1 -12.1049 -24.5341 12.3583
12 2 1 -11.3373 -23.4475 11.7365
13 2 3 -11.2021 -23.5252 10.4855
14 2 3 -10.1366 -23.1414 12.3985
24 2 2 -13.078 -24.6778 11.8209
25 2 2 -12.3686 -24.2896 13.44
26 2 2 -11.5658 -25.5143 12.3668
20 2 1 -8.0356 -22.1396 12.6911
21 2 1 -7.218 -23.4793 12.7368
22 2 3 -7.81867 -24.5576 12.8991
23 2 3 -5.96238 -23.5154 13.3749
31 2 2 -5.35367 -24.4134 13.4586
16 2 1 -9.94294 -20.7479 12.041
27 2 2 -10.95 -20.6316 11.5937
28 2 2 -9.57021 -18.6282 11.9191
15 2 1 -9.34001 -22.0061 12.136
17 2 1 -9.13801 -19.6152 12.0088
18 2 1 -7.71126 -19.7044 12.2996
19 2 1 -7.18722 -21.0272 12.37
29 2 2 -7.09204 -18.8406 12.1264
30 2 2 -6.16985 -21.0998 12.7895
1 1 1 18.7921 7.66863 13.1923
2 1 1 20.0868 7.51858 13.3217
3 1 1 20.9449 8.55627 14.0043
4 1 3 20.5446 9.19743 14.9666
6 1 2 18.2447 8.55535 13.5485
7 1 2 18.3006 6.97812 12.6046
8 1 2 20.5353 6.65408 12.8644
5 1 4 22.3807 8.18722 14.105
9 1 2 22.7446 7.37802 13.5692
10 1 2 23.1111 8.9079 14.5717
68 4 2 5.04149 16.0782 10.2053
53 4 1 4.55805 17.0186 10.0217
56 4 3 6.47371 18.4357 10.106
57 4 1 7.41935 19.4341 9.77472
58 4 1 6.76523 20.6772 9.7507
60 4 1 8.93731 21.8427 9.98876
62 4 1 8.72204 19.4147 10.3131
64 4 3 8.97488 17.0603 10.3061
66 4 2 3.70214 16.7908 9.38186
67 4 2 4.1224 17.4631 10.9324
61 4 1 9.513 20.599 10.0969
63 4 1 9.59713 18.1411 10.292
65 4 3 10.7557 18.1586 11.0801
72 4 2 10.5922 20.5508 10.3814
73 4 2 11.5388 17.6216 10.875
71 4 2 9.55089 22.6594 9.79095
ITEM: TIMESTEP
120
ITEM: NUMBER OF ATOMS
115
ITEM: BOX BOUNDS pp pp pp
-2.8628399999999999e+01 2.8628399999999999e+01
-2.8628399999999999e+01 2.8628399999999999e+01
-2.8628399999999999e+01 2.8628399999999999e+01
ITEM: ATOMS id mol type x y z
74 5 1 12.2516 -12.6647 -11.4102
75 5 1 12.987 -11.5814 -12.0914
76 5 3 13.072 -11.8685 -13.3616
77 5 3 14.1608 -11.2775 -11.4358
78 5 1 15.0641 -10.2253 -11.6879
87 5 2 11.3016 -12.8435 -11.8693
88 5 2 12.1467 -12.3329 -10.2999
89 5 2 12.8605 -13.5174 -11.545
83 5 1 16.3989 -10.2664 -11.0724
84 5 1 17.1131 -11.6344 -11.0016
85 5 3 16.486 -12.7142 -10.8056
86 5 3 18.5079 -11.6497 -10.8169
94 5 2 19.1031 -12.34 -11.2098
79 5 1 14.4697 -9.00712 -11.8682
80 5 1 15.3617 -7.93943 -12.0372
90 5 2 13.5761 -8.86174 -12.4267
91 5 2 14.9215 -6.91719 -12.2311
81 5 1 16.5896 -7.96098 -11.2927
82 5 1 17.2592 -9.13431 -11.1028
92 5 2 17.1281 -7.02716 -11.2953
93 5 2 18.0641 -9.12564 -10.4132
97 6 3 16.1259 17.3046 -9.92797
110 6 2 15.4212 16.0363 -7.72921
95 6 1 15.1611 17.0801 -7.80813
108 6 2 14.1247 17.1613 -8.25778
109 6 2 15.1113 17.5366 -6.81171
96 6 1 16.1211 17.7678 -8.75113
98 6 3 17.3169 18.1831 -8.10108
99 6 1 18.1196 19.3174 -8.25779
100 6 1 17.5009 20.6128 -8.24677
101 6 1 18.342 21.7616 -8.52043
102 6 1 19.5884 21.6726 -7.875
103 6 1 20.2625 20.4515 -7.85188
104 6 1 19.4437 19.2564 -7.64875
105 6 1 20.2885 17.9609 -7.55791
106 6 3 19.7526 16.8689 -7.41006
107 6 3 21.5041 18.0198 -6.91449
111 6 2 16.5793 20.6917 -8.72695
114 6 2 21.2674 20.4836 -7.30995
115 6 2 22.1574 17.258 -7.05092
112 6 2 17.8095 22.7172 -8.30664
113 6 2 20.2677 22.5458 -7.95403
32 3 1 15.6785 -6.13767 7.01035
45 3 2 14.6843 -6.34515 6.6314
46 3 2 15.5579 -5.79982 8.07722
33 3 1 16.4528 -5.13766 6.26994
34 3 3 16.5453 -5.39083 5.00545
35 3 3 17.6541 -4.72702 6.88673
36 3 1 18.6365 -3.79438 6.53318
41 3 1 19.9504 -3.92885 7.2385
42 3 1 20.5705 -5.25954 7.1772
43 3 3 19.8905 -6.31582 7.24214
44 3 3 21.908 -5.45783 7.68206
47 3 2 16.1673 -7.12512 7.01861
52 3 2 22.3361 -6.24915 7.32071
37 3 1 18.1182 -2.45681 6.33084
38 3 1 19.0991 -1.50211 6.097
39 3 1 20.2781 -1.51632 6.80344
40 3 1 20.8122 -2.79177 6.98956
48 3 2 17.1301 -2.30408 5.85576
49 3 2 18.7049 -0.463055 5.97857
50 3 2 21.019 -0.762038 6.62364
51 3 2 21.6582 -2.70957 7.62861
54 4 1 5.38894 17.9456 9.30818
55 4 3 5.6755 17.6704 8.10901
59 4 1 7.5537 21.8773 9.55559
69 4 2 5.75933 20.9377 9.56968
70 4 2 7.02774 22.7587 9.74243
11 2 1 -12.1605 -24.4912 12.3237
12 2 1 -11.3711 -23.4912 11.6612
13 2 3 -11.2413 -23.6013 10.4526
14 2 3 -10.1943 -23.0552 12.4576
24 2 2 -13.1305 -24.7294 11.8012
25 2 2 -12.4318 -24.1631 13.3313
26 2 2 -11.6811 -25.4396 12.4348
20 2 1 -8.00893 -22.1175 12.834
21 2 1 -7.26759 -23.4567 12.7523
22 2 3 -7.75273 -24.6074 12.8708
23 2 3 -6.01254 -23.4391 13.3798
31 2 2 -5.44323 -24.2375 13.5389
16 2 1 -9.87565 -20.6984 12.1285
27 2 2 -10.7855 -20.7191 11.515
28 2 2 -9.51382 -18.5599 12.2025
15 2 1 -9.30326 -22.0099 12.1462
17 2 1 -9.04933 -19.5792 11.9167
18 2 1 -7.72783 -19.7185 12.3687
19 2 1 -7.17136 -20.9713 12.3975
29 2 2 -7.1951 -18.9452 11.9706
30 2 2 -6.07168 -21.0062 12.6557
1 1 1 18.7977 7.67948 13.2405
2 1 1 20.1 7.60209 13.3668
3 1 1 20.9387 8.61007 14.0393
4 1 3 20.463 9.26771 14.9565
6 1 2 18.2452 8.52202 13.6378
7 1 2 18.2227 6.86199 12.7968
8 1 2 20.59 6.76285 12.8048
5 1 4 22.2571 8.11453 14.1272
9 1 2 22.6922 7.31941 13.5651
10 1 2 22.9331 8.84633 14.3013
68 4 2 5.16915 16.1299 10.304
53 4 1 4.49682 17.0008 10.1026
56 4 3 6.53692 18.4279 10.0654
57 4 1 7.42394 19.4569 9.79268
58 4 1 6.81721 20.7424 9.80868
60 4 1 8.86664 21.8461 9.97839
62 4 1 8.68224 19.4639 10.4001
64 4 3 8.88055 17.0142 10.3135
66 4 2 3.6063 16.6819 9.48934
67 4 2 4.20728 17.4095 11.0952
61 4 1 9.53722 20.5648 10.0765
63 4 1 9.46303 18.123 10.497
65 4 3 10.6896 18.1958 11.1467
72 4 2 10.4742 20.6261 10.6194
73 4 2 11.5035 17.6521 10.8792
71 4 2 9.43307 22.6309 9.54289
ITEM: TIMESTEP
140
ITEM: NUMBER OF ATOMS
115
ITEM: BOX BOUNDS pp pp pp
-2.8628399999999999e+01 2.8628399999999999e+01
-2.8628399999999999e+01 2.8628399999999999e+01
-2.8628399999999999e+01 2.8628399999999999e+01
ITEM: ATOMS id mol type x y z
74 5 1 12.2017 -12.6255 -11.3514
75 5 1 13.039 -11.6507 -12.1083
76 5 3 13.049 -11.8074 -13.3799
77 5 3 14.2518 -11.3299 -11.5332
78 5 1 15.115 -10.2422 -11.8627
87 5 2 11.1918 -12.7074 -11.7946
88 5 2 12.1622 -12.1835 -10.267
89 5 2 12.7185 -13.6264 -11.4454
83 5 1 16.3698 -10.3626 -11.0944
84 5 1 17.1854 -11.6162 -11.0636
85 5 3 16.5976 -12.6712 -10.764
86 5 3 18.5563 -11.7382 -10.9143
94 5 2 19.0565 -12.6248 -11.0706
79 5 1 14.543 -8.97206 -11.8242
80 5 1 15.3724 -7.85429 -12.0303
90 5 2 13.5929 -8.88472 -12.3943
91 5 2 14.9197 -6.94732 -12.0306
81 5 1 16.5189 -7.94137 -11.257
82 5 1 17.1833 -9.18503 -11.1933
92 5 2 17.1859 -7.03347 -11.4717
93 5 2 18.1193 -9.18774 -10.7011
97 6 3 16.171 17.214 -9.87372
110 6 2 15.5647 16.153 -7.53158
95 6 1 15.2073 17.1458 -7.81483
108 6 2 14.1898 17.1024 -8.23101
109 6 2 15.1008 17.7992 -6.87717
96 6 1 16.1493 17.8154 -8.75412
98 6 3 17.3908 18.1116 -8.09917
99 6 1 18.1945 19.3379 -8.20077
100 6 1 17.5157 20.5902 -8.30719
101 6 1 18.3337 21.695 -8.56472
102 6 1 19.592 21.6884 -7.95266
103 6 1 20.2712 20.4642 -7.9091
104 6 1 19.5061 19.2778 -7.62865
105 6 1 20.3183 17.9586 -7.5841
106 6 3 19.7455 16.8581 -7.42508
107 6 3 21.4623 18.0548 -6.79485
111 6 2 16.563 20.5684 -8.83667
114 6 2 21.2735 20.5488 -7.38529
115 6 2 22.14 17.2847 -6.66796
112 6 2 17.8228 22.5874 -8.79205
113 6 2 20.2497 22.434 -8.29946
32 3 1 15.6914 -6.14206 6.93667
45 3 2 14.7476 -6.42851 6.4119
46 3 2 15.4355 -5.8681 7.93895
33 3 1 16.4246 -5.07519 6.2331
34 3 3 16.4966 -5.29435 4.97353
35 3 3 17.6434 -4.78286 6.82703
36 3 1 18.6555 -3.77034 6.57889
41 3 1 19.9164 -3.92938 7.20002
42 3 1 20.5509 -5.29219 7.17082
43 3 3 19.906 -6.37659 7.38549
44 3 3 21.9344 -5.45362 7.67745
47 3 2 16.2842 -7.11955 6.87638
52 3 2 22.5902 -6.21526 7.37095
37 3 1 18.1794 -2.48379 6.36708
38 3 1 19.0424 -1.46303 6.06157
39 3 1 20.2435 -1.4999 6.8635
40 3 1 20.8245 -2.78662 6.97196
48 3 2 17.3399 -2.43434 5.73273
49 3 2 18.6401 -0.524609 5.91753
50 3 2 21.0526 -0.733751 6.56007
51 3 2 21.826 -2.7542 7.39473
54 4 1 5.42807 17.8906 9.30705
55 4 3 5.66762 17.5843 8.12428
59 4 1 7.57619 21.8164 9.53048
69 4 2 5.69618 20.9065 9.40712
70 4 2 7.04356 22.8024 9.466
11 2 1 -12.1559 -24.4547 12.3717
12 2 1 -11.305 -23.5021 11.6366
13 2 3 -11.1875 -23.609 10.395
14 2 3 -10.2217 -23.0229 12.4761
24 2 2 -13.0668 -24.691 11.7333
25 2 2 -12.5176 -24.0861 13.3376
26 2 2 -11.6893 -25.4478 12.5928
20 2 1 -7.93595 -22.167 12.7579
21 2 1 -7.22054 -23.4323 12.7925
22 2 3 -7.81895 -24.5185 12.8478
23 2 3 -6.03937 -23.4771 13.3927
31 2 2 -5.3798 -24.3008 13.3018
16 2 1 -9.82466 -20.7123 12.0271
27 2 2 -10.8619 -20.5928 11.7038
28 2 2 -9.38656 -18.7269 11.6801
15 2 1 -9.30216 -22.0356 12.227
17 2 1 -8.96986 -19.6336 11.8944
18 2 1 -7.64396 -19.7502 12.5182
19 2 1 -7.06601 -21.0148 12.474
29 2 2 -7.05025 -18.8163 12.632
30 2 2 -6.06798 -21.0644 12.8182
1 1 1 18.7171 7.75513 13.2639
2 1 1 20.0455 7.58587 13.3686
3 1 1 20.915 8.59696 14.0836
4 1 3 20.4277 9.25982 14.9958
6 1 2 18.2204 8.64011 13.6817
7 1 2 18.0775 7.14988 12.6535
8 1 2 20.4822 6.84067 12.7716
5 1 4 22.2249 8.11732 14.2137
9 1 2 22.5622 7.57504 13.4043
10 1 2 22.9035 8.61131 14.7994
68 4 2 5.28632 15.9855 10.3143
53 4 1 4.62871 16.916 10.1352
56 4 3 6.51549 18.4042 10.0593
57 4 1 7.34856 19.4608 9.8497
58 4 1 6.67714 20.7607 9.8565
60 4 1 8.87355 21.8313 9.98086
62 4 1 8.65882 19.4694 10.4637
64 4 3 8.91305 17.0596 10.358
66 4 2 3.78113 16.7013 9.51742
67 4 2 4.38709 17.3887 11.1329
61 4 1 9.48118 20.5463 10.0742
63 4 1 9.4564 18.1598 10.4908
65 4 3 10.5865 18.184 11.2017
72 4 2 10.5886 20.4499 10.2846
73 4 2 11.2601 17.5174 11.0231
71 4 2 9.48719 22.6792 9.62314
ITEM: TIMESTEP
160
ITEM: NUMBER OF ATOMS
115
ITEM: BOX BOUNDS pp pp pp
-2.8628399999999999e+01 2.8628399999999999e+01
-2.8628399999999999e+01 2.8628399999999999e+01
-2.8628399999999999e+01 2.8628399999999999e+01
ITEM: ATOMS id mol type x y z
74 5 1 12.2043 -12.5531 -11.3084
75 5 1 13.0753 -11.7416 -12.1694
76 5 3 12.9416 -11.7105 -13.4132
77 5 3 14.3186 -11.3897 -11.6659
78 5 1 15.0809 -10.2407 -11.7937
87 5 2 11.2639 -12.6465 -11.8722
88 5 2 12.0398 -11.9824 -10.3933
89 5 2 12.6452 -13.5637 -11.1528
83 5 1 16.4186 -10.3615 -11.1898
84 5 1 17.2142 -11.6628 -11.2448
85 5 3 16.6501 -12.7199 -10.7261
86 5 3 18.563 -11.5845 -10.8925
94 5 2 19.1786 -12.3641 -11.1757
79 5 1 14.4827 -8.94321 -11.8087
80 5 1 15.3506 -7.7893 -11.9603
90 5 2 13.513 -8.8473 -12.345
91 5 2 14.8824 -6.81572 -11.9966
81 5 1 16.564 -7.92512 -11.2633
82 5 1 17.2502 -9.16139 -11.2977
92 5 2 17.1924 -7.09986 -11.2198
93 5 2 18.0846 -9.15503 -10.6448
97 6 3 16.2718 17.2994 -9.86636
110 6 2 15.7305 16.1893 -7.39708
95 6 1 15.2299 17.1656 -7.78567
108 6 2 14.2818 16.8748 -8.28114
109 6 2 14.9918 17.8195 -6.93518
96 6 1 16.1887 17.8072 -8.70955
98 6 3 17.3343 18.1424 -8.01325
99 6 1 18.1803 19.2066 -8.42634
100 6 1 17.563 20.4868 -8.38332
101 6 1 18.3836 21.642 -8.61447
102 6 1 19.6927 21.7203 -8.0695
103 6 1 20.343 20.4572 -7.87385
104 6 1 19.4982 19.2508 -7.6471
105 6 1 20.3275 18.0131 -7.49387
106 6 3 19.7534 16.8886 -7.46552
107 6 3 21.5046 18.0609 -6.72364
111 6 2 16.5578 20.5169 -8.84734
114 6 2 21.2126 20.4576 -7.37393
115 6 2 22.1323 17.3351 -6.86372
112 6 2 17.7879 22.5286 -8.76765
113 6 2 20.2494 22.608 -8.21699
32 3 1 15.6569 -6.21163 6.91652
45 3 2 14.6717 -6.43137 6.517
46 3 2 15.6035 -5.92358 8.0179
33 3 1 16.4784 -5.15865 6.20737
34 3 3 16.4798 -5.25588 4.95556
35 3 3 17.6619 -4.81865 6.84398
36 3 1 18.6603 -3.79654 6.55948
41 3 1 19.9704 -3.9614 7.24061
42 3 1 20.6263 -5.33174 7.20907
43 3 3 19.9916 -6.42197 7.44706
44 3 3 21.8482 -5.39969 7.69063
47 3 2 16.1781 -7.14072 6.79529
52 3 2 22.4535 -6.18283 7.46096
37 3 1 18.0938 -2.49125 6.416
38 3 1 19.0599 -1.42847 6.11998
39 3 1 20.2625 -1.56266 6.81233
40 3 1 20.8677 -2.84402 6.96779
48 3 2 17.0532 -2.3526 6.04959
49 3 2 18.6539 -0.363258 6.10262
50 3 2 20.8186 -0.701057 6.85994
51 3 2 21.7098 -2.72573 7.62275
54 4 1 5.53603 17.8033 9.33595
55 4 3 5.67011 17.513 8.11294
59 4 1 7.54632 21.8469 9.42507
69 4 2 5.68715 20.8185 9.54919
70 4 2 7.07496 22.8808 9.39909
11 2 1 -12.2188 -24.535 12.3173
12 2 1 -11.3153 -23.5036 11.709
13 2 3 -11.1264 -23.7078 10.461
14 2 3 -10.1806 -23.1038 12.5006
24 2 2 -13.1014 -24.6672 11.7157
25 2 2 -12.5593 -24.2355 13.3546
26 2 2 -11.7249 -25.5408 12.4012
20 2 1 -7.96651 -22.1447 12.7897
21 2 1 -7.17526 -23.4562 12.6871
22 2 3 -7.87331 -24.5187 12.7589
23 2 3 -5.94765 -23.4982 13.499
31 2 2 -5.2665 -24.0975 13.3499
16 2 1 -9.7833 -20.6839 12.0562
27 2 2 -10.5858 -20.6733 11.3851
28 2 2 -9.19923 -18.6631 11.9478
15 2 1 -9.28628 -22.0249 12.2009
17 2 1 -8.84774 -19.6228 11.8871
18 2 1 -7.71092 -19.7762 12.6083
19 2 1 -7.10682 -21.0568 12.5415
29 2 2 -7.04125 -18.9648 12.2694
30 2 2 -6.21232 -21.1348 12.9828
1 1 1 18.6216 7.73095 13.2466
2 1 1 19.9494 7.58583 13.3308
3 1 1 20.8088 8.50788 14.1164
4 1 3 20.3992 9.26225 14.9629
6 1 2 18.1395 8.63984 13.667
7 1 2 18.1217 7.02963 12.7652
8 1 2 20.4248 6.80809 12.7919
5 1 4 22.2062 8.11228 14.2926
9 1 2 22.6519 7.71055 13.3954
10 1 2 22.7489 8.72763 14.9362
68 4 2 5.01897 15.79 10.1328
53 4 1 4.59937 16.8295 10.0823
56 4 3 6.54336 18.4311 10.1521
57 4 1 7.34623 19.5291 9.88385
58 4 1 6.70854 20.8198 9.86754
60 4 1 8.83789 21.8044 9.89999
62 4 1 8.63996 19.4987 10.4275
64 4 3 8.94685 16.9877 10.321
66 4 2 3.65585 16.7558 9.44818
67 4 2 4.38175 17.1216 11.1021
61 4 1 9.42323 20.6011 9.96141
63 4 1 9.40979 18.1363 10.4816
65 4 3 10.5427 18.0829 11.2912
72 4 2 10.4158 20.5408 10.1727
73 4 2 11.248 17.326 11.1062
71 4 2 9.52328 22.555 9.48212
ITEM: TIMESTEP
180
ITEM: NUMBER OF ATOMS
115
ITEM: BOX BOUNDS pp pp pp
-2.8628399999999999e+01 2.8628399999999999e+01
-2.8628399999999999e+01 2.8628399999999999e+01
-2.8628399999999999e+01 2.8628399999999999e+01
ITEM: ATOMS id mol type x y z
74 5 1 12.1953 -12.5553 -11.3566
75 5 1 13.0678 -11.7032 -12.2245
76 5 3 12.8234 -11.6246 -13.4484
77 5 3 14.353 -11.4087 -11.7606
78 5 1 15.1399 -10.2702 -11.8933
87 5 2 11.2196 -12.8484 -11.9177
88 5 2 12.0586 -12.0094 -10.3698
89 5 2 12.7418 -13.4288 -11.1027
83 5 1 16.3747 -10.3355 -11.2115
84 5 1 17.1555 -11.6499 -11.18
85 5 3 16.7159 -12.7885 -10.8089
86 5 3 18.5102 -11.5473 -10.9263
94 5 2 19.1336 -12.2768 -11.0235
79 5 1 14.5326 -8.94119 -11.9015
80 5 1 15.3272 -7.7756 -11.9253
90 5 2 13.5473 -8.82061 -12.4454
91 5 2 14.7434 -6.86897 -11.6959
81 5 1 16.5306 -7.8803 -11.1991
82 5 1 17.2347 -9.10615 -11.2316
92 5 2 17.1718 -6.99992 -11.2543
93 5 2 18.245 -9.08362 -10.8928
97 6 3 16.3078 17.3029 -9.76319
110 6 2 15.5922 16.089 -7.35626
95 6 1 15.1729 17.0344 -7.74988
108 6 2 14.1949 16.7809 -8.2874
109 6 2 15.0306 17.6528 -6.83633
96 6 1 16.2094 17.7377 -8.60497
98 6 3 17.3438 18.2102 -7.99725
99 6 1 18.3239 19.1618 -8.40732
100 6 1 17.7015 20.4209 -8.48053
101 6 1 18.4831 21.5837 -8.73389
102 6 1 19.6921 21.6156 -8.11231
103 6 1 20.3625 20.415 -7.92009
104 6 1 19.6212 19.2711 -7.73436
105 6 1 20.3502 17.9912 -7.43855
106 6 3 19.764 16.9256 -7.49292
107 6 3 21.5743 17.9354 -6.72721
111 6 2 16.7183 20.4544 -8.78986
114 6 2 21.3383 20.4712 -7.37234
115 6 2 22.3604 17.3568 -7.09548
112 6 2 17.86 22.5021 -8.56559
113 6 2 20.3326 22.4404 -8.27862
32 3 1 15.6397 -6.35346 6.87155
45 3 2 14.547 -6.4802 6.35215
46 3 2 15.5274 -6.14171 7.96596
33 3 1 16.422 -5.25 6.23326
34 3 3 16.456 -5.26664 4.97528
35 3 3 17.6534 -4.89673 6.95059
36 3 1 18.5309 -3.81513 6.62986
41 3 1 19.8717 -3.87344 7.11154
42 3 1 20.6233 -5.2343 7.19117
43 3 3 19.9965 -6.34042 7.50741
44 3 3 21.9944 -5.38011 7.59981
47 3 2 16.107 -7.31437 6.77669
52 3 2 22.6283 -6.17189 7.38956
37 3 1 18.0982 -2.47308 6.47459
38 3 1 19.0281 -1.44614 6.18655
39 3 1 20.2325 -1.54017 6.81887
40 3 1 20.7449 -2.85648 7.001
48 3 2 17.1397 -2.33072 5.94635
49 3 2 18.536 -0.514142 6.08215
50 3 2 20.8852 -0.69252 6.66254
51 3 2 21.7298 -2.86321 7.48506
54 4 1 5.48653 17.7835 9.32781
55 4 3 5.76803 17.4345 8.17647
59 4 1 7.47093 21.9347 9.4016
69 4 2 5.74199 20.8297 9.27669
70 4 2 7.08345 22.849 9.31523
11 2 1 -12.2411 -24.5962 12.2915
12 2 1 -11.2819 -23.5374 11.7479
13 2 3 -11.1563 -23.7124 10.5274
14 2 3 -10.1762 -23.0563 12.4554
24 2 2 -13.2426 -24.6083 11.7951
25 2 2 -12.4391 -24.3829 13.3731
26 2 2 -11.7508 -25.5965 12.2242
20 2 1 -7.92828 -22.1404 12.8143
21 2 1 -7.18873 -23.425 12.8014
22 2 3 -7.80588 -24.5414 12.622
23 2 3 -6.00945 -23.3971 13.4394
31 2 2 -5.36382 -24.2089 13.2528
16 2 1 -9.80254 -20.7201 12.0779
27 2 2 -10.7862 -20.612 11.6883
28 2 2 -9.32098 -18.638 11.6329
15 2 1 -9.23854 -22.027 12.1586
17 2 1 -8.95452 -19.6653 11.9152
18 2 1 -7.64676 -19.775 12.4846
19 2 1 -7.09159 -21.0693 12.5577
29 2 2 -7.02155 -18.8988 12.4159
30 2 2 -6.04869 -21.1163 12.9643
1 1 1 18.626 7.68272 13.1415
2 1 1 19.9155 7.51718 13.3092
3 1 1 20.8168 8.56594 13.9912
4 1 3 20.2718 9.29402 14.8801
6 1 2 17.9991 8.35475 13.713
7 1 2 18.1948 6.93195 12.5218
8 1 2 20.3555 6.73083 12.7259
5 1 4 22.196 8.17893 14.3158
9 1 2 22.8216 7.62834 13.7069
10 1 2 22.6238 8.81506 15.037
68 4 2 5.0641 15.8084 9.97339
53 4 1 4.58756 16.7715 9.97403
56 4 3 6.48301 18.3954 10.1145
57 4 1 7.35651 19.5051 9.78247
58 4 1 6.73244 20.8314 9.75353
60 4 1 8.83961 21.8677 9.81469
62 4 1 8.71263 19.3743 10.3114
64 4 3 8.89342 16.9422 10.2468
66 4 2 3.63638 16.6194 9.34723
67 4 2 4.33116 17.1126 11.03
61 4 1 9.50581 20.6131 9.96924
63 4 1 9.44761 18.0807 10.3977
65 4 3 10.5325 18.1225 11.3061
72 4 2 10.4606 20.7391 10.4674
73 4 2 11.3097 17.4044 11.3387
71 4 2 9.40274 22.7702 9.80442
ITEM: TIMESTEP
200
ITEM: NUMBER OF ATOMS
115
ITEM: BOX BOUNDS pp pp pp
-2.8628399999999999e+01 2.8628399999999999e+01
-2.8628399999999999e+01 2.8628399999999999e+01
-2.8628399999999999e+01 2.8628399999999999e+01
ITEM: ATOMS id mol type x y z
74 5 1 12.2549 -12.5071 -11.3923
75 5 1 13.0483 -11.5383 -12.2775
76 5 3 12.7794 -11.6248 -13.5298
77 5 3 14.3671 -11.3578 -11.7894
78 5 1 15.2115 -10.1857 -11.9535
87 5 2 11.1821 -12.5117 -11.6458
88 5 2 12.3567 -12.2452 -10.3112
89 5 2 12.6305 -13.5449 -11.4637
83 5 1 16.3963 -10.2933 -11.1577
84 5 1 17.1485 -11.6343 -11.2004
85 5 3 16.7112 -12.7844 -10.9168
86 5 3 18.488 -11.4596 -11.0198
94 5 2 19.0965 -12.2568 -11.0881
79 5 1 14.5337 -8.90705 -11.916
80 5 1 15.3872 -7.7936 -11.8397
90 5 2 13.73 -8.77534 -12.5003
91 5 2 14.8491 -6.91359 -11.8959
81 5 1 16.5995 -7.82929 -11.1439
82 5 1 17.1984 -9.1316 -11.1648
92 5 2 17.2124 -6.90309 -11.0567
93 5 2 17.9547 -9.19464 -10.4621
97 6 3 16.4315 17.2438 -9.68713
110 6 2 15.6185 16.078 -7.37988
95 6 1 15.1839 17.0316 -7.69074
108 6 2 14.3131 16.7488 -8.30995
109 6 2 14.8779 17.5963 -6.79212
96 6 1 16.1643 17.7783 -8.56798
98 6 3 17.3696 18.1788 -7.91322
99 6 1 18.3408 19.1633 -8.33428
100 6 1 17.7222 20.4386 -8.5691
101 6 1 18.4836 21.58 -8.84321
102 6 1 19.7289 21.6918 -8.17291
103 6 1 20.4172 20.4391 -8.01242
104 6 1 19.6542 19.2678 -7.63009
105 6 1 20.423 17.9313 -7.50055
106 6 3 19.7901 16.8811 -7.46574
107 6 3 21.6492 17.9034 -6.72255
111 6 2 16.742 20.4335 -9.12615
114 6 2 21.307 20.5751 -7.44067
115 6 2 22.3373 17.166 -6.75861
112 6 2 17.8527 22.4924 -8.88449
113 6 2 20.3604 22.5962 -8.41654
32 3 1 15.7171 -6.4645 6.88201
45 3 2 14.8874 -6.86721 6.23884
46 3 2 15.4356 -6.21563 7.93191
33 3 1 16.4974 -5.36714 6.27211
34 3 3 16.4992 -5.3153 5.02749
35 3 3 17.6508 -4.911 6.91673
36 3 1 18.5279 -3.84037 6.60277
41 3 1 19.8928 -3.95365 7.14408
42 3 1 20.6733 -5.28598 7.13552
43 3 3 20.0759 -6.33325 7.57659
44 3 3 21.9779 -5.25181 7.50355
47 3 2 16.3312 -7.42401 6.94174
52 3 2 22.5703 -6.05381 7.74406
37 3 1 18.035 -2.46937 6.55544
38 3 1 18.9864 -1.45444 6.19321
39 3 1 20.2525 -1.46119 6.78769
40 3 1 20.7964 -2.79631 6.9431
48 3 2 17.0473 -2.29656 6.22779
49 3 2 18.6066 -0.498437 5.85779
50 3 2 20.9444 -0.679818 6.33537
51 3 2 21.7417 -2.68911 7.52659
54 4 1 5.47136 17.8586 9.28451
55 4 3 5.7677 17.4977 8.15995
59 4 1 7.49018 21.7917 9.33445
69 4 2 5.64442 20.7394 9.29454
70 4 2 7.05165 22.7361 9.59436
11 2 1 -12.2201 -24.5221 12.3329
12 2 1 -11.3004 -23.4554 11.7406
13 2 3 -11.1208 -23.5878 10.4873
14 2 3 -10.1364 -23.1439 12.4368
24 2 2 -13.2128 -24.4426 11.7882
25 2 2 -12.3792 -24.3131 13.4069
26 2 2 -11.7755 -25.5297 12.2526
20 2 1 -8.00508 -22.1301 12.7629
21 2 1 -7.25406 -23.4273 12.8166
22 2 3 -7.78615 -24.544 12.5685
23 2 3 -6.04531 -23.4816 13.5157
31 2 2 -5.28209 -24.1897 13.2373
16 2 1 -9.81741 -20.7443 12.0067
27 2 2 -10.7378 -20.6582 11.4399
28 2 2 -9.30959 -18.6423 11.9654
15 2 1 -9.30682 -22.0998 12.0754
17 2 1 -8.94607 -19.6891 11.8255
18 2 1 -7.69437 -19.7512 12.4508
19 2 1 -7.11598 -20.9801 12.5901
29 2 2 -7.04844 -18.8629 12.2724
30 2 2 -6.16224 -21.0886 13.0942
1 1 1 18.7362 7.73845 13.0582
2 1 1 20.0124 7.56691 13.2777
3 1 1 20.8383 8.60443 14.0376
4 1 3 20.207 9.34512 14.7902
6 1 2 18.1537 8.63505 13.3424
7 1 2 18.2171 6.94402 12.5693
8 1 2 20.4958 6.61247 12.9874
5 1 4 22.1528 8.22425 14.3106
9 1 2 22.7959 7.76181 13.5722
10 1 2 22.6928 8.85956 14.8998
68 4 2 5.17982 15.9338 10.1691
53 4 1 4.61379 16.8695 9.94949
56 4 3 6.48402 18.3811 10.1282
57 4 1 7.32682 19.4736 9.73848
58 4 1 6.7185 20.7107 9.60789
60 4 1 8.82225 21.8118 9.88845
62 4 1 8.70152 19.4424 10.2134
64 4 3 8.97462 17.0081 10.2645
66 4 2 3.70982 16.567 9.39248
67 4 2 4.31791 17.3961 10.8833
61 4 1 9.48299 20.5998 10.0138
63 4 1 9.4305 18.1701 10.3776
65 4 3 10.5195 18.1695 11.2571
72 4 2 10.5262 20.6277 10.4578
73 4 2 11.1661 17.4699 11.1878
71 4 2 9.48044 22.5926 9.37969
ITEM: TIMESTEP
220
ITEM: NUMBER OF ATOMS
115
ITEM: BOX BOUNDS pp pp pp
-2.8628399999999999e+01 2.8628399999999999e+01
-2.8628399999999999e+01 2.8628399999999999e+01
-2.8628399999999999e+01 2.8628399999999999e+01
ITEM: ATOMS id mol type x y z
74 5 1 12.3347 -12.5275 -11.5548
75 5 1 13.0676 -11.569 -12.3403
76 5 3 12.9073 -11.5876 -13.5909
77 5 3 14.3044 -11.2978 -11.8376
78 5 1 15.15 -10.2073 -11.9704
87 5 2 11.287 -12.2196 -11.5606
88 5 2 12.7275 -12.5486 -10.4996
89 5 2 12.4345 -13.5871 -11.864
83 5 1 16.3988 -10.3083 -11.1846
84 5 1 17.167 -11.5766 -11.2524
85 5 3 16.6535 -12.6944 -11.0535
86 5 3 18.5935 -11.5629 -10.9845
94 5 2 19.2012 -12.1621 -11.6181
79 5 1 14.548 -8.92771 -11.9625
80 5 1 15.4115 -7.78898 -11.9153
90 5 2 13.6778 -8.79612 -12.6138
91 5 2 14.8592 -6.83503 -11.8421
81 5 1 16.5881 -7.89519 -11.1611
82 5 1 17.2167 -9.13234 -11.1381
92 5 2 17.3282 -7.07665 -11.235
93 5 2 18.1596 -9.1182 -10.561
97 6 3 16.5153 17.2936 -9.64289
110 6 2 15.5852 15.975 -7.51054
95 6 1 15.2688 16.9975 -7.79154
108 6 2 14.4217 16.8189 -8.42685
109 6 2 14.9932 17.6002 -6.9081
96 6 1 16.2578 17.7691 -8.56793
98 6 3 17.4072 18.2067 -7.88535
99 6 1 18.2507 19.2102 -8.24998
100 6 1 17.6173 20.4205 -8.64119
101 6 1 18.5036 21.5271 -8.848
102 6 1 19.615 21.6123 -8.13474
103 6 1 20.3708 20.4255 -8.03309
104 6 1 19.6259 19.2458 -7.66065
105 6 1 20.465 17.9406 -7.43697
106 6 3 19.8975 16.8519 -7.46929
107 6 3 21.6292 17.9453 -6.76651
111 6 2 16.7345 20.415 -9.32146
114 6 2 21.3225 20.5284 -7.7307
115 6 2 22.2977 17.1904 -6.82281
112 6 2 18.079 22.4944 -9.17123
113 6 2 20.1876 22.4612 -8.43315
32 3 1 15.7759 -6.50761 6.97526
45 3 2 14.9083 -6.71645 6.38075
46 3 2 15.5385 -6.23516 7.97236
33 3 1 16.5876 -5.3817 6.25034
34 3 3 16.5795 -5.37747 4.95373
35 3 3 17.73 -4.89333 6.94634
36 3 1 18.6246 -3.82873 6.69979
41 3 1 19.9805 -3.90014 7.13087
42 3 1 20.6868 -5.23566 7.17262
43 3 3 20.1014 -6.28802 7.5866
44 3 3 22.0487 -5.22125 7.4847
47 3 2 16.3509 -7.48854 7.02592
52 3 2 22.4951 -5.93074 8.09886
37 3 1 18.031 -2.54848 6.59577
38 3 1 18.901 -1.48401 6.2193
39 3 1 20.2194 -1.51397 6.66528
40 3 1 20.8262 -2.76493 6.92383
48 3 2 17.0905 -2.49834 6.09316
49 3 2 18.392 -0.491015 6.20109
50 3 2 20.7602 -0.671099 6.47083
51 3 2 21.8586 -2.58458 7.37188
54 4 1 5.50368 17.8676 9.32776
55 4 3 5.77138 17.5803 8.11557
59 4 1 7.46067 21.7885 9.32689
69 4 2 5.68547 20.7114 9.19563
70 4 2 7.02399 22.8366 9.08322
11 2 1 -12.1717 -24.4273 12.3349
12 2 1 -11.3003 -23.4632 11.6361
13 2 3 -11.1109 -23.579 10.386
14 2 3 -10.1293 -23.1496 12.3687
24 2 2 -13.0631 -24.4369 11.7661
25 2 2 -12.3751 -24.0276 13.3887
26 2 2 -11.6826 -25.4349 12.3393
20 2 1 -8.02284 -22.2057 12.7721
21 2 1 -7.24098 -23.4602 12.7745
22 2 3 -7.82826 -24.5175 12.4512
23 2 3 -6.08451 -23.5442 13.6207
31 2 2 -5.29283 -23.9915 13.2121
16 2 1 -9.82421 -20.765 11.9395
27 2 2 -10.7396 -20.7932 11.3463
28 2 2 -9.29692 -18.7029 11.474
15 2 1 -9.29175 -22.0594 12.1111
17 2 1 -8.92126 -19.6733 11.719
18 2 1 -7.7008 -19.7045 12.428
19 2 1 -7.22054 -20.993 12.5787
29 2 2 -7.05443 -18.8602 12.3865
30 2 2 -6.32959 -21.0968 13.2292
1 1 1 18.7504 7.83518 13.0149
2 1 1 20.0569 7.58708 13.3227
3 1 1 20.8326 8.57771 14.0819
4 1 3 20.2021 9.36793 14.7894
6 1 2 18.2252 8.70388 13.4427
7 1 2 18.2113 7.10892 12.415
8 1 2 20.599 6.71898 12.909
5 1 4 22.2215 8.28795 14.3842
9 1 2 22.7565 7.6815 13.7793
10 1 2 22.7606 8.89358 15.0382
68 4 2 5.20789 16.0461 10.482
53 4 1 4.62119 16.9041 10.0634
56 4 3 6.52562 18.3636 10.0759
57 4 1 7.33378 19.4378 9.6834
58 4 1 6.66308 20.6731 9.63956
60 4 1 8.74872 21.8912 9.88957
62 4 1 8.73584 19.4081 10.3323
64 4 3 8.95326 17.0725 10.2642
66 4 2 3.82424 16.5135 9.41156
67 4 2 4.07775 17.4916 10.8844
61 4 1 9.48382 20.5947 10.0231
63 4 1 9.55077 18.1763 10.3737
65 4 3 10.5635 18.2203 11.3231
72 4 2 10.4969 20.6647 10.3571
73 4 2 11.3805 17.637 11.164
71 4 2 9.28526 22.8267 9.68481
ITEM: TIMESTEP
240
ITEM: NUMBER OF ATOMS
115
ITEM: BOX BOUNDS pp pp pp
-2.8628399999999999e+01 2.8628399999999999e+01
-2.8628399999999999e+01 2.8628399999999999e+01
-2.8628399999999999e+01 2.8628399999999999e+01
ITEM: ATOMS id mol type x y z
74 5 1 12.2807 -12.6075 -11.6291
75 5 1 13.0187 -11.5249 -12.3296
76 5 3 12.9951 -11.5866 -13.6058
77 5 3 14.2884 -11.2554 -11.8096
78 5 1 15.1799 -10.1716 -11.9317
87 5 2 11.2322 -12.6823 -11.9495
88 5 2 12.3719 -12.6104 -10.5318
89 5 2 12.812 -13.6145 -11.9345
83 5 1 16.4089 -10.3192 -11.1168
84 5 1 17.2157 -11.596 -11.2109
85 5 3 16.6149 -12.6729 -11.2754
86 5 3 18.6195 -11.6936 -10.9647
94 5 2 19.2555 -12.1022 -11.6015
79 5 1 14.5882 -8.86417 -12.0067
80 5 1 15.4093 -7.77851 -11.9576
90 5 2 13.7448 -8.68529 -12.6983
91 5 2 14.8351 -6.83066 -11.8943
81 5 1 16.5458 -7.86276 -11.2095
82 5 1 17.1857 -9.14803 -11.1045
92 5 2 17.2416 -7.05251 -11.1373
93 5 2 18.0061 -9.15211 -10.4073
97 6 3 16.5288 17.3428 -9.74046
110 6 2 15.7124 16.0488 -7.59901
95 6 1 15.2588 16.9871 -7.75587
108 6 2 14.2555 16.8547 -8.26972
109 6 2 15.0665 17.4554 -6.77993
96 6 1 16.3146 17.6827 -8.54137
98 6 3 17.4494 18.1317 -7.7598
99 6 1 18.3278 19.1684 -8.27223
100 6 1 17.6766 20.3885 -8.65064
101 6 1 18.478 21.495 -8.96491
102 6 1 19.6373 21.6556 -8.18296
103 6 1 20.368 20.4736 -7.99125
104 6 1 19.6227 19.2782 -7.67197
105 6 1 20.4075 17.9656 -7.50446
106 6 3 19.9221 16.7758 -7.36418
107 6 3 21.6017 18.0571 -6.79861
111 6 2 16.8585 20.2403 -9.36578
114 6 2 21.3127 20.6931 -7.38072
115 6 2 22.3383 17.3541 -6.95248
112 6 2 17.9131 22.4046 -9.09269
113 6 2 20.2103 22.4856 -8.29344
32 3 1 15.8441 -6.48872 6.93349
45 3 2 14.8357 -6.5169 6.38249
46 3 2 15.7557 -6.24164 8.05102
33 3 1 16.616 -5.37993 6.2902
34 3 3 16.6502 -5.34995 5.0344
35 3 3 17.8154 -4.98203 6.89616
36 3 1 18.6391 -3.88904 6.61681
41 3 1 19.9815 -3.91255 7.20602
42 3 1 20.745 -5.22641 7.33245
43 3 3 20.0592 -6.26916 7.53797
44 3 3 22.1125 -5.27958 7.44486
47 3 2 16.4255 -7.37183 6.80053
52 3 2 22.6341 -5.83057 8.16526
37 3 1 18.0465 -2.58385 6.52869
38 3 1 18.8406 -1.47963 6.20368
39 3 1 20.2031 -1.58101 6.59634
40 3 1 20.7803 -2.85425 6.7917
48 3 2 16.9646 -2.54682 6.23832
49 3 2 18.3217 -0.547737 6.33192
50 3 2 20.8621 -0.723046 6.19911
51 3 2 21.7146 -2.71759 7.2588
54 4 1 5.49906 17.7969 9.33144
55 4 3 5.74624 17.5669 8.09283
59 4 1 7.54917 21.876 9.40924
69 4 2 5.79672 20.8323 9.4727
70 4 2 7.07514 22.8083 9.4155
11 2 1 -12.161 -24.4026 12.2745
12 2 1 -11.2771 -23.4176 11.5839
13 2 3 -11.1719 -23.6614 10.3677
14 2 3 -10.1331 -23.0791 12.3547
24 2 2 -13.0364 -24.5411 11.6144
25 2 2 -12.5383 -23.9809 13.2106
26 2 2 -11.5761 -25.3627 12.4366
20 2 1 -7.93954 -22.1081 12.8475
21 2 1 -7.25374 -23.3814 12.7794
22 2 3 -7.72829 -24.5138 12.4731
23 2 3 -6.20978 -23.4786 13.6345
31 2 2 -5.41149 -23.9626 13.4802
16 2 1 -9.8188 -20.7346 11.9352
27 2 2 -10.7863 -20.6236 11.3685
28 2 2 -9.36186 -18.7385 11.7425
15 2 1 -9.2368 -22.0015 12.1118
17 2 1 -8.90201 -19.7776 11.7282
18 2 1 -7.67393 -19.8359 12.4267
19 2 1 -7.06301 -21.0153 12.6454
29 2 2 -7.07364 -18.9504 12.3076
30 2 2 -6.03475 -21.0239 13.0271
1 1 1 18.7159 7.80868 13.0486
2 1 1 20.0083 7.58057 13.3502
3 1 1 20.7852 8.58964 14.1577
4 1 3 20.2082 9.37975 14.9767
6 1 2 18.1702 8.70465 13.2763
7 1 2 18.18 7.03722 12.4792
8 1 2 20.4946 6.73052 13.075
5 1 4 22.137 8.33197 14.5058
9 1 2 22.6878 7.64878 13.9355
10 1 2 22.5637 8.87566 15.2449
68 4 2 5.29615 16.0461 10.5599
53 4 1 4.56412 16.8713 10.129
56 4 3 6.56502 18.3672 10.0224
57 4 1 7.39949 19.4344 9.70332
58 4 1 6.81587 20.7431 9.64888
60 4 1 8.78321 21.8898 10.027
62 4 1 8.66739 19.4276 10.3543
64 4 3 8.9577 17.0145 10.318
66 4 2 3.79233 16.3684 9.42644
67 4 2 3.97893 17.4637 10.8961
61 4 1 9.40579 20.6675 10.2178
63 4 1 9.52114 18.1379 10.4128
65 4 3 10.5927 18.1705 11.2957
72 4 2 10.3571 20.7667 10.6634
73 4 2 11.347 17.466 11.3358
71 4 2 9.46044 22.6642 9.78924
ITEM: TIMESTEP
260
ITEM: NUMBER OF ATOMS
115
ITEM: BOX BOUNDS pp pp pp
-2.8628399999999999e+01 2.8628399999999999e+01
-2.8628399999999999e+01 2.8628399999999999e+01
-2.8628399999999999e+01 2.8628399999999999e+01
ITEM: ATOMS id mol type x y z
74 5 1 12.3301 -12.5957 -11.5673
75 5 1 13.0972 -11.5349 -12.3105
76 5 3 13.057 -11.5953 -13.5772
77 5 3 14.307 -11.2358 -11.7327
78 5 1 15.2332 -10.2065 -11.9555
87 5 2 11.2841 -12.8681 -11.9871
88 5 2 12.2359 -12.2814 -10.5116
89 5 2 12.9473 -13.4639 -11.4795
83 5 1 16.4376 -10.3144 -11.175
84 5 1 17.243 -11.6097 -11.1975
85 5 3 16.6131 -12.6675 -11.3904
86 5 3 18.6102 -11.7077 -11.0013
94 5 2 19.2245 -12.14 -11.7159
79 5 1 14.5515 -8.89158 -12.0509
80 5 1 15.4193 -7.69549 -11.9836
90 5 2 13.7 -8.73977 -12.6996
91 5 2 14.9578 -6.73191 -12.0315
81 5 1 16.5915 -7.83757 -11.1938
82 5 1 17.2763 -9.17752 -11.0394
92 5 2 17.2202 -6.93097 -11.1445
93 5 2 18.0718 -9.2536 -10.2985
97 6 3 16.5026 17.4124 -9.76916
110 6 2 15.4485 15.9054 -7.46333
95 6 1 15.2375 16.9327 -7.77783
108 6 2 14.3064 16.8432 -8.39473
109 6 2 14.9607 17.5009 -6.84568
96 6 1 16.3396 17.5961 -8.52926
98 6 3 17.4332 18.1086 -7.8068
99 6 1 18.3034 19.1267 -8.21741
100 6 1 17.6888 20.3653 -8.69492
101 6 1 18.4782 21.4456 -8.94684
102 6 1 19.7161 21.6436 -8.21171
103 6 1 20.3685 20.4206 -7.90389
104 6 1 19.588 19.217 -7.57786
105 6 1 20.4901 17.9825 -7.44754
106 6 3 19.8781 16.8652 -7.26837
107 6 3 21.6765 18.1554 -6.72145
111 6 2 16.661 20.312 -9.14533
114 6 2 21.3016 20.5316 -7.33695
115 6 2 22.3539 17.3259 -6.73242
112 6 2 17.8724 22.2808 -9.25903
113 6 2 20.3941 22.4389 -8.58594
32 3 1 15.7596 -6.45494 6.86793
45 3 2 14.6983 -6.37679 6.48803
46 3 2 15.7785 -6.29816 7.93529
33 3 1 16.6002 -5.37162 6.27871
34 3 3 16.6003 -5.3793 5.01783
35 3 3 17.8359 -5.01084 6.8942
36 3 1 18.6256 -3.88577 6.65155
41 3 1 19.9973 -3.95177 7.15129
42 3 1 20.7367 -5.25666 7.33599
43 3 3 20.1368 -6.30357 7.68476
44 3 3 22.1451 -5.36512 7.5085
47 3 2 16.2363 -7.43197 6.59865
52 3 2 22.4963 -5.7072 8.37519
37 3 1 17.9968 -2.60167 6.49861
38 3 1 18.8316 -1.5768 6.05327
39 3 1 20.1273 -1.55477 6.58251
40 3 1 20.7628 -2.83057 6.66834
48 3 2 17.0213 -2.57193 6.1059
49 3 2 18.3112 -0.660029 5.79379
50 3 2 20.7249 -0.655172 6.27444
51 3 2 21.8129 -2.80989 6.93106
54 4 1 5.44114 17.751 9.35471
55 4 3 5.69522 17.4483 8.13216
59 4 1 7.56756 21.939 9.52288
69 4 2 5.83464 20.7 9.08572
70 4 2 7.07578 22.8883 9.54356
11 2 1 -12.1881 -24.4357 12.3212
12 2 1 -11.3402 -23.398 11.596
13 2 3 -11.1742 -23.5911 10.3351
14 2 3 -10.1478 -23.0436 12.2726
24 2 2 -13.1836 -24.6344 11.8579
25 2 2 -12.2941 -24.0623 13.2744
26 2 2 -11.6977 -25.4341 12.294
20 2 1 -7.94601 -22.115 12.7906
21 2 1 -7.14337 -23.3858 12.7445
22 2 3 -7.68943 -24.4692 12.488
23 2 3 -6.0932 -23.424 13.6383
31 2 2 -5.40628 -24.187 13.7476
16 2 1 -9.77469 -20.6852 12.0879
27 2 2 -10.5951 -20.5787 11.4828
28 2 2 -9.25402 -18.6659 11.4055
15 2 1 -9.22323 -22.0136 12.1542
17 2 1 -8.88959 -19.6154 11.7718
18 2 1 -7.62987 -19.621 12.4086
19 2 1 -7.13274 -20.9517 12.6476
29 2 2 -6.99656 -18.7494 12.3752
30 2 2 -6.0826 -21.028 12.7747
1 1 1 18.7053 7.77445 13.0762
2 1 1 19.956 7.60624 13.4856
3 1 1 20.7672 8.60687 14.2731
4 1 3 20.1016 9.33425 15.0766
6 1 2 18.1262 8.64622 13.3375
7 1 2 18.2578 6.99939 12.4527
8 1 2 20.4686 6.73441 13.1538
5 1 4 22.1153 8.25717 14.6305
9 1 2 22.7067 7.72898 13.9438
10 1 2 22.7297 8.87892 15.2367
68 4 2 5.28611 16.0597 10.389
53 4 1 4.60023 16.8753 10.1284
56 4 3 6.61832 18.3704 10.0244
57 4 1 7.46218 19.479 9.73728
58 4 1 6.77378 20.7643 9.70277
60 4 1 8.91141 21.8858 10.0952
62 4 1 8.75755 19.4699 10.4292
64 4 3 9.03382 17.0554 10.3297
66 4 2 3.76313 16.5015 9.41277
67 4 2 4.21734 17.3815 11.0725
61 4 1 9.52778 20.626 10.3274
63 4 1 9.5689 18.151 10.4708
65 4 3 10.6803 18.1064 11.2729
72 4 2 10.3939 20.7196 10.998
73 4 2 11.3099 17.3507 11.3242
71 4 2 9.61927 22.6822 9.84518
ITEM: TIMESTEP
280
ITEM: NUMBER OF ATOMS
115
ITEM: BOX BOUNDS pp pp pp
-2.8628399999999999e+01 2.8628399999999999e+01
-2.8628399999999999e+01 2.8628399999999999e+01
-2.8628399999999999e+01 2.8628399999999999e+01
ITEM: ATOMS id mol type x y z
74 5 1 12.3504 -12.5414 -11.5094
75 5 1 13.1494 -11.5396 -12.2809
76 5 3 13.1129 -11.5771 -13.5693
77 5 3 14.3411 -11.2013 -11.6383
78 5 1 15.2436 -10.1489 -11.8793
87 5 2 11.2895 -12.613 -11.876
88 5 2 12.3117 -12.2171 -10.4491
89 5 2 12.8604 -13.5488 -11.4393
83 5 1 16.4465 -10.2513 -11.156
84 5 1 17.2037 -11.5755 -11.1593
85 5 3 16.6875 -12.7098 -11.3902
86 5 3 18.6249 -11.6189 -11.051
94 5 2 19.0722 -12.2613 -11.6783
79 5 1 14.648 -8.86889 -12.0231
80 5 1 15.4619 -7.78633 -11.9912
90 5 2 13.8136 -8.68393 -12.7657
91 5 2 15.0033 -6.83073 -12.0508
81 5 1 16.586 -7.85734 -11.1426
82 5 1 17.1836 -9.10751 -11.0036
92 5 2 17.1422 -6.99553 -10.9353
93 5 2 17.9334 -8.99652 -10.3254
97 6 3 16.4416 17.3694 -9.72156
110 6 2 15.3449 15.9185 -7.56354
95 6 1 15.2075 16.9947 -7.76359
108 6 2 14.2654 17.0471 -8.31504
109 6 2 14.969 17.5292 -6.7992
96 6 1 16.247 17.6764 -8.54799
98 6 3 17.4001 18.1204 -7.80349
99 6 1 18.3097 19.0955 -8.22415
100 6 1 17.6206 20.3919 -8.55842
101 6 1 18.4764 21.4104 -8.97759
102 6 1 19.6447 21.5424 -8.30494
103 6 1 20.3579 20.4241 -7.88383
104 6 1 19.5774 19.2308 -7.55972
105 6 1 20.4871 18.0212 -7.40211
106 6 3 19.9409 16.8343 -7.27011
107 6 3 21.6737 18.1564 -6.68071
111 6 2 16.8472 20.184 -9.23474
114 6 2 21.1926 20.6806 -7.20361
115 6 2 22.4134 17.4883 -6.70739
112 6 2 17.9574 22.3192 -9.35514
113 6 2 20.2449 22.4347 -8.58293
32 3 1 15.7256 -6.41779 6.85825
45 3 2 14.7408 -6.44078 6.43989
46 3 2 15.6151 -6.2656 7.95301
33 3 1 16.5689 -5.3359 6.27566
34 3 3 16.6369 -5.46318 5.03137
35 3 3 17.714 -4.96512 6.97741
36 3 1 18.5676 -3.95246 6.56396
41 3 1 19.9406 -3.94487 7.03894
42 3 1 20.6478 -5.31017 7.23722
43 3 3 20.0319 -6.32764 7.70865
44 3 3 22.0264 -5.36073 7.49044
47 3 2 16.2354 -7.46549 6.64845
52 3 2 22.2833 -5.44864 8.4509
37 3 1 17.9617 -2.6818 6.4339
38 3 1 18.792 -1.67659 5.93558
39 3 1 20.0926 -1.57919 6.41415
40 3 1 20.7596 -2.81352 6.59813
48 3 2 16.9551 -2.6282 6.13376
49 3 2 18.3597 -0.669518 5.70041
50 3 2 20.6542 -0.776295 5.97521
51 3 2 21.7716 -2.76917 7.04952
54 4 1 5.47008 17.7591 9.29812
55 4 3 5.58168 17.3705 8.07324
59 4 1 7.67324 21.8759 9.68821
69 4 2 5.84839 20.7697 9.2393
70 4 2 7.19996 22.8027 9.70399
11 2 1 -12.2266 -24.4039 12.2998
12 2 1 -11.295 -23.4201 11.6046
13 2 3 -11.1321 -23.4003 10.3078
14 2 3 -10.1931 -23.0652 12.3503
24 2 2 -13.3137 -24.2191 12.1219
25 2 2 -12.0964 -24.2912 13.3813
26 2 2 -11.8843 -25.37 11.9716
20 2 1 -7.87233 -22.0462 12.7931
21 2 1 -7.09684 -23.3596 12.7681
22 2 3 -7.62937 -24.4443 12.4711
23 2 3 -5.96156 -23.5885 13.5696
31 2 2 -5.22104 -24.2238 13.1936
16 2 1 -9.71608 -20.6367 12.0317
27 2 2 -10.7464 -20.5042 11.6273
28 2 2 -9.21765 -18.6624 11.6897
15 2 1 -9.21428 -21.9843 12.1673
17 2 1 -8.81087 -19.5978 11.7661
18 2 1 -7.58642 -19.6363 12.4483
19 2 1 -7.05186 -20.9325 12.4663
29 2 2 -6.89724 -18.8662 12.0363
30 2 2 -6.10196 -20.9148 13.0351
1 1 1 18.8242 7.84247 13.0952
2 1 1 19.9939 7.60258 13.5782
3 1 1 20.7254 8.53478 14.3577
4 1 3 20.07 9.35644 15.0691
6 1 2 18.2933 8.79928 13.2813
7 1 2 18.3826 7.10359 12.4946
8 1 2 20.5347 6.65714 13.2617
5 1 4 22.1028 8.20395 14.6811
9 1 2 22.5575 7.77049 13.9647
10 1 2 22.6561 8.85169 15.2962
68 4 2 5.12447 15.9245 10.205
53 4 1 4.57576 16.8317 10.1312
56 4 3 6.53065 18.3459 10.0296
57 4 1 7.4039 19.4854 9.77928
58 4 1 6.81423 20.7462 9.67221
60 4 1 8.95361 21.8396 10.2271
62 4 1 8.77122 19.4438 10.4069
64 4 3 9.02493 17.1182 10.3159
66 4 2 3.58748 16.7167 9.72337
67 4 2 4.58104 17.2754 11.1185
61 4 1 9.57531 20.6325 10.3534
63 4 1 9.60904 18.1929 10.4769
65 4 3 10.8197 18.0605 11.2865
72 4 2 10.5834 20.7114 10.8305
73 4 2 11.387 17.1754 11.2301
71 4 2 9.57041 22.7078 9.93784
ITEM: TIMESTEP
300
ITEM: NUMBER OF ATOMS
115
ITEM: BOX BOUNDS pp pp pp
-2.8628399999999999e+01 2.8628399999999999e+01
-2.8628399999999999e+01 2.8628399999999999e+01
-2.8628399999999999e+01 2.8628399999999999e+01
ITEM: ATOMS id mol type x y z
74 5 1 12.3472 -12.4848 -11.4508
75 5 1 13.1257 -11.5343 -12.2398
76 5 3 13.1442 -11.6768 -13.5212
77 5 3 14.3057 -11.1659 -11.5943
78 5 1 15.1901 -10.1183 -11.853
87 5 2 11.3868 -12.5331 -11.8548
88 5 2 12.2942 -12.1556 -10.3632
89 5 2 12.81 -13.5135 -11.469
83 5 1 16.4767 -10.2913 -11.1109
84 5 1 17.28 -11.5686 -11.2605
85 5 3 16.7264 -12.7106 -11.3014
86 5 3 18.6904 -11.4864 -11.0457
94 5 2 19.2635 -12.2416 -11.3876
79 5 1 14.6486 -8.80076 -11.9184
80 5 1 15.5743 -7.72336 -12.008
90 5 2 13.7435 -8.56299 -12.4927
91 5 2 15.0691 -6.64845 -12.133
81 5 1 16.5846 -7.76429 -11.0382
82 5 1 17.2404 -9.07292 -10.9723
92 5 2 17.19 -6.81701 -11.0214
93 5 2 17.9071 -9.09326 -10.1492
97 6 3 16.449 17.2266 -9.64965
110 6 2 15.5806 15.9868 -7.67453
95 6 1 15.1714 17.0574 -7.80089
108 6 2 14.2229 17.003 -8.39549
109 6 2 14.9216 17.5044 -6.87533
96 6 1 16.1759 17.7932 -8.59784
98 6 3 17.2875 18.1425 -7.8014
99 6 1 18.2751 19.1277 -8.25465
100 6 1 17.6285 20.3282 -8.62225
101 6 1 18.4482 21.3926 -9.0446
102 6 1 19.6041 21.5563 -8.35186
103 6 1 20.311 20.373 -7.96413
104 6 1 19.5902 19.2324 -7.59314
105 6 1 20.4066 18.0178 -7.32958
106 6 3 19.9507 16.8104 -7.32165
107 6 3 21.6505 18.1732 -6.69698
111 6 2 16.6267 20.2964 -8.9532
114 6 2 21.2473 20.5301 -7.57879
115 6 2 22.3677 17.4931 -6.74002
112 6 2 17.8845 22.2822 -9.37809
113 6 2 20.2185 22.4423 -8.74475
32 3 1 15.7082 -6.42611 6.89107
45 3 2 14.7231 -6.47166 6.38596
46 3 2 15.5166 -6.16519 7.92259
33 3 1 16.5561 -5.40291 6.26151
34 3 3 16.6637 -5.46538 4.98689
35 3 3 17.6827 -4.99606 6.93568
36 3 1 18.5661 -3.93976 6.4999
41 3 1 19.864 -3.98971 7.10888
42 3 1 20.5806 -5.29648 7.09642
43 3 3 19.9703 -6.26237 7.66717
44 3 3 21.9402 -5.32445 7.46596
47 3 2 16.1813 -7.41697 6.96368
52 3 2 22.2241 -4.92849 8.33982
37 3 1 17.9567 -2.67572 6.33529
38 3 1 18.7669 -1.60046 5.87529
39 3 1 20.1059 -1.63419 6.25959
40 3 1 20.7093 -2.91294 6.64203
48 3 2 16.9067 -2.6632 5.94429
49 3 2 18.3487 -0.628073 5.80815
50 3 2 20.6757 -0.83777 5.76438
51 3 2 21.6969 -2.8414 6.99932
54 4 1 5.40492 17.8253 9.32756
55 4 3 5.55884 17.3852 8.14925
59 4 1 7.67044 21.9239 9.7161
69 4 2 5.93023 20.7538 9.26805
70 4 2 7.15068 22.8707 9.883
11 2 1 -12.2289 -24.3595 12.1828
12 2 1 -11.2602 -23.3951 11.6792
13 2 3 -11.1554 -23.3234 10.3857
14 2 3 -10.1337 -22.9887 12.3992
24 2 2 -13.1886 -24.111 11.7911
25 2 2 -12.4079 -24.3272 13.301
26 2 2 -12.0215 -25.403 11.8285
20 2 1 -7.89561 -22.0999 12.7157
21 2 1 -7.12619 -23.3658 12.6803
22 2 3 -7.5987 -24.4829 12.3427
23 2 3 -6.00253 -23.5314 13.5187
31 2 2 -5.27486 -24.1518 13.2044
16 2 1 -9.75036 -20.722 12.0707
27 2 2 -10.7146 -20.602 11.5352
28 2 2 -9.26827 -18.5993 11.8381
15 2 1 -9.18927 -21.9726 12.1108
17 2 1 -8.83788 -19.62 11.8535
18 2 1 -7.5353 -19.7014 12.3969
19 2 1 -7.01454 -20.9734 12.5555
29 2 2 -6.82732 -18.9185 12.1536
30 2 2 -5.93085 -21.0298 12.8525
1 1 1 18.7638 7.76816 13.0723
2 1 1 20.0233 7.62435 13.5374
3 1 1 20.7513 8.61358 14.3269
4 1 3 20.1518 9.38069 15.1612
6 1 2 18.157 8.65158 13.2727
7 1 2 18.2611 7.02576 12.4197
8 1 2 20.6563 6.86201 13.1782
5 1 4 22.0702 8.22516 14.846
9 1 2 22.7022 7.71473 14.1333
10 1 2 22.4601 8.65913 15.6904
68 4 2 5.00232 15.8773 10.3824
53 4 1 4.49104 16.8167 10.0651
56 4 3 6.50762 18.3681 9.97664
57 4 1 7.48505 19.4661 9.75414
58 4 1 6.84663 20.7896 9.82579
60 4 1 8.88683 21.854 10.3039
62 4 1 8.77301 19.3527 10.4513
64 4 3 9.06755 16.973 10.3058
66 4 2 3.54584 16.5279 9.45446
67 4 2 4.28273 17.3632 11.0139
61 4 1 9.5281 20.5618 10.2735
63 4 1 9.60478 18.09 10.4096
65 4 3 10.756 18.0619 11.2674
72 4 2 10.4782 20.6399 10.6425
73 4 2 11.5591 17.4736 11.1343
71 4 2 9.51353 22.6862 10.0802
ITEM: TIMESTEP
320
ITEM: NUMBER OF ATOMS
115
ITEM: BOX BOUNDS pp pp pp
-2.8628399999999999e+01 2.8628399999999999e+01
-2.8628399999999999e+01 2.8628399999999999e+01
-2.8628399999999999e+01 2.8628399999999999e+01
ITEM: ATOMS id mol type x y z
74 5 1 12.2706 -12.5357 -11.428
75 5 1 13.0702 -11.5978 -12.2932
76 5 3 13.2114 -11.7248 -13.5454
77 5 3 14.2567 -11.142 -11.6321
78 5 1 15.1891 -10.0483 -11.7811
87 5 2 11.3666 -12.8904 -11.9548
88 5 2 11.8905 -12.0557 -10.5677
89 5 2 12.8607 -13.4044 -11.1211
83 5 1 16.4742 -10.2097 -11.0964
84 5 1 17.2803 -11.4781 -11.3634
85 5 3 16.7507 -12.5826 -11.1873
86 5 3 18.6264 -11.4244 -11.0176
94 5 2 19.3234 -12.1013 -11.4459
79 5 1 14.6622 -8.79516 -11.8116
80 5 1 15.516 -7.65415 -11.9843
90 5 2 13.7645 -8.67033 -12.4544
91 5 2 15.0789 -6.72478 -12.2589
81 5 1 16.665 -7.75807 -11.1045
82 5 1 17.2726 -9.00093 -10.8762
92 5 2 17.2311 -6.89004 -11.114
93 5 2 18.1565 -9.00238 -10.2352
97 6 3 16.4262 17.1326 -9.61154
110 6 2 15.556 16.0798 -7.44405
95 6 1 15.0877 17.0699 -7.84701
108 6 2 14.1898 17.0588 -8.47727
109 6 2 14.884 17.6592 -6.98707
96 6 1 16.1875 17.759 -8.59907
98 6 3 17.3123 18.1842 -7.86016
99 6 1 18.2327 19.1098 -8.28844
100 6 1 17.6029 20.3102 -8.58105
101 6 1 18.4334 21.3822 -9.01571
102 6 1 19.6782 21.4637 -8.46505
103 6 1 20.3105 20.28 -8.09233
104 6 1 19.5096 19.216 -7.53428
105 6 1 20.3716 18.0407 -7.34837
106 6 3 19.9108 16.8346 -7.23777
107 6 3 21.5737 18.1766 -6.68078
111 6 2 16.5862 20.2842 -9.15026
114 6 2 21.1887 20.5436 -7.56076
115 6 2 22.3502 17.5439 -6.79561
112 6 2 17.8844 22.2704 -9.29983
113 6 2 20.2551 22.2906 -8.74554
32 3 1 15.685 -6.434 6.8781
45 3 2 14.725 -6.65074 6.2872
46 3 2 15.3999 -6.20298 7.94905
33 3 1 16.4793 -5.33568 6.19509
34 3 3 16.6082 -5.53138 4.95121
35 3 3 17.6598 -4.99536 6.88103
36 3 1 18.5506 -3.9356 6.50666
41 3 1 19.8659 -3.96385 7.06688
42 3 1 20.5901 -5.29635 7.10513
43 3 3 19.9576 -6.28608 7.6242
44 3 3 21.9202 -5.30594 7.43939
47 3 2 16.3284 -7.30786 6.87159
52 3 2 22.2909 -5.1186 8.38786
37 3 1 17.9234 -2.69124 6.20264
38 3 1 18.7309 -1.63777 5.87935
39 3 1 20.0958 -1.70713 6.31832
40 3 1 20.7158 -2.91524 6.58323
48 3 2 16.8692 -2.58109 5.80221
49 3 2 18.3358 -0.673165 5.86727
50 3 2 20.6811 -0.929011 5.88383
51 3 2 21.6855 -2.82463 6.99266
54 4 1 5.38851 17.7633 9.3371
55 4 3 5.56183 17.4134 8.13011
59 4 1 7.62246 21.8793 9.77749
69 4 2 5.74775 20.8541 9.71883
70 4 2 7.08588 22.8409 9.74838
11 2 1 -12.2563 -24.2564 12.1906
12 2 1 -11.3169 -23.2104 11.7162
13 2 3 -11.2015 -23.3341 10.4384
14 2 3 -10.0759 -23.0492 12.4125
24 2 2 -13.2477 -24.2962 11.688
25 2 2 -12.5209 -24.0821 13.2106
26 2 2 -11.8321 -25.2847 11.9773
20 2 1 -7.86003 -22.1065 12.7137
21 2 1 -7.06172 -23.3763 12.577
22 2 3 -7.62481 -24.4946 12.3077
23 2 3 -6.04953 -23.543 13.5514
31 2 2 -5.35727 -24.3162 13.5962
16 2 1 -9.7264 -20.6715 12.128
27 2 2 -10.6574 -20.4623 11.7293
28 2 2 -9.21427 -18.6794 11.7469
15 2 1 -9.18609 -21.9894 12.1508
17 2 1 -8.87484 -19.6288 11.9196
18 2 1 -7.62704 -19.7469 12.4058
19 2 1 -7.00026 -21.0337 12.4796
29 2 2 -6.97705 -18.8676 12.1576
30 2 2 -6.02581 -21.053 12.9487
1 1 1 18.7556 7.71131 13.093
2 1 1 20.0738 7.68052 13.4403
3 1 1 20.726 8.62141 14.3696
4 1 3 20.0872 9.30106 15.2045
6 1 2 17.9859 8.42503 13.4854
7 1 2 18.37 7.01357 12.464
8 1 2 20.66 6.90332 13.0298
5 1 4 22.033 8.23132 14.9211
9 1 2 22.6384 7.73695 14.2755
10 1 2 22.5106 8.90248 15.6017
68 4 2 5.10867 16.0579 10.4407
53 4 1 4.42781 16.9116 10.0687
56 4 3 6.47844 18.3831 10.0263
57 4 1 7.39688 19.483 9.80802
58 4 1 6.80124 20.7892 9.94257
60 4 1 8.91299 21.795 10.3743
62 4 1 8.73538 19.4019 10.3843
64 4 3 9.11597 16.9339 10.2969
66 4 2 3.66092 16.4924 9.35356
67 4 2 3.9824 17.5164 10.9693
61 4 1 9.54414 20.5462 10.2265
63 4 1 9.59533 18.0977 10.3833
65 4 3 10.7084 18.0936 11.2514
72 4 2 10.5222 20.5394 10.5917
73 4 2 11.5563 17.5335 10.9888
71 4 2 9.52905 22.6149 10.258
ITEM: TIMESTEP
340
ITEM: NUMBER OF ATOMS
115
ITEM: BOX BOUNDS pp pp pp
-2.8628399999999999e+01 2.8628399999999999e+01
-2.8628399999999999e+01 2.8628399999999999e+01
-2.8628399999999999e+01 2.8628399999999999e+01
ITEM: ATOMS id mol type x y z
74 5 1 12.26 -12.4846 -11.5433
75 5 1 13.1231 -11.5099 -12.343
76 5 3 13.2992 -11.7238 -13.5676
77 5 3 14.3244 -11.1495 -11.6149
78 5 1 15.2039 -10.0724 -11.7384
87 5 2 11.3878 -12.7596 -12.1531
88 5 2 11.8154 -12.022 -10.6435
89 5 2 12.8461 -13.4758 -11.2824
83 5 1 16.4534 -10.1524 -11.0377
84 5 1 17.2635 -11.4449 -11.3348
85 5 3 16.7268 -12.4871 -11.0591
86 5 3 18.5911 -11.4266 -10.9685
94 5 2 19.3404 -11.9635 -11.2895
79 5 1 14.6153 -8.772 -11.8478
80 5 1 15.4952 -7.69267 -11.9125
90 5 2 13.7485 -8.58696 -12.3895
91 5 2 14.9898 -6.76873 -11.9183
81 5 1 16.6784 -7.69939 -11.167
82 5 1 17.269 -8.97204 -11.021
92 5 2 17.3316 -6.90091 -11.3985
93 5 2 18.1061 -9.03925 -10.3195
97 6 3 16.3379 17.079 -9.71305
110 6 2 15.2986 16.1697 -7.21421
95 6 1 15.0139 17.1087 -7.74824
108 6 2 14.1294 17.0918 -8.3941
109 6 2 14.8321 17.7739 -6.83355
96 6 1 16.1932 17.6097 -8.5836
98 6 3 17.2775 18.1432 -7.85149
99 6 1 18.2179 19.1394 -8.29481
100 6 1 17.6044 20.3894 -8.59005
101 6 1 18.4384 21.4388 -9.00399
102 6 1 19.7531 21.4635 -8.54082
103 6 1 20.316 20.2683 -8.01363
104 6 1 19.51 19.1419 -7.64256
105 6 1 20.3266 17.9404 -7.36754
106 6 3 19.7146 16.799 -7.24514
107 6 3 21.4718 18.1783 -6.6403
111 6 2 16.7017 20.3711 -9.13356
114 6 2 21.2252 20.4798 -7.45081
115 6 2 22.2818 17.6114 -6.72647
112 6 2 17.9284 22.3779 -9.12748
113 6 2 20.4664 22.0492 -9.09121
32 3 1 15.684 -6.38308 6.80909
45 3 2 14.7022 -6.54742 6.3294
46 3 2 15.4711 -6.02029 7.87141
33 3 1 16.4702 -5.35386 6.13655
34 3 3 16.6093 -5.47219 4.89363
35 3 3 17.567 -4.96431 6.84591
36 3 1 18.4854 -4.00321 6.46458
41 3 1 19.8612 -4.03973 6.93492
42 3 1 20.5821 -5.30571 7.16816
43 3 3 19.9986 -6.36605 7.58929
44 3 3 21.9469 -5.31183 7.42771
47 3 2 16.1539 -7.38044 6.85918
52 3 2 22.2713 -5.14648 8.36876
37 3 1 17.8573 -2.74249 6.29969
38 3 1 18.7501 -1.72586 5.82098
39 3 1 20.0814 -1.65889 6.33972
40 3 1 20.67 -2.92968 6.48227
48 3 2 16.873 -2.65598 5.94277
49 3 2 18.3475 -0.755453 5.71604
50 3 2 20.5946 -0.787072 5.89157
51 3 2 21.6044 -2.79291 6.88833
54 4 1 5.3721 17.8513 9.35645
55 4 3 5.66082 17.4013 8.19189
59 4 1 7.6583 21.8275 9.74939
69 4 2 5.79815 20.8332 9.53248
70 4 2 7.18347 22.7795 9.748
11 2 1 -12.2713 -24.2502 12.1891
12 2 1 -11.342 -23.2314 11.6871
13 2 3 -11.1393 -23.3383 10.4261
14 2 3 -10.2191 -22.9551 12.4817
24 2 2 -13.3012 -24.358 11.7981
25 2 2 -12.5001 -23.9627 13.2193
26 2 2 -11.7559 -25.1923 12.1363
20 2 1 -7.84464 -22.1277 12.5809
21 2 1 -7.04926 -23.4879 12.6117
22 2 3 -7.72059 -24.5521 12.3385
23 2 3 -6.03903 -23.6032 13.5355
31 2 2 -5.35436 -24.3334 13.5911
16 2 1 -9.77082 -20.6517 12.1195
27 2 2 -10.7356 -20.5611 11.6401
28 2 2 -9.36485 -18.6182 11.945
15 2 1 -9.2279 -22.028 12.1925
17 2 1 -8.91383 -19.5675 11.8226
18 2 1 -7.57781 -19.722 12.436
19 2 1 -6.99987 -20.987 12.4446
29 2 2 -6.87884 -19.0044 12.2589
30 2 2 -6.00948 -21.0706 12.9231
1 1 1 18.7733 7.79103 13.2252
2 1 1 20.0845 7.60901 13.5289
3 1 1 20.7825 8.57634 14.4518
4 1 3 20.0188 9.22954 15.1907
6 1 2 18.115 8.42558 13.8483
7 1 2 18.3349 7.20659 12.3866
8 1 2 20.6746 6.95974 12.8908
5 1 4 22.0714 8.28694 14.9681
9 1 2 22.6842 7.59775 14.4991
10 1 2 22.5407 9.07813 15.5619
68 4 2 4.95712 15.9821 10.3515
53 4 1 4.3976 16.9287 10.0939
56 4 3 6.44751 18.3588 10.1546
57 4 1 7.30162 19.4041 9.90091
58 4 1 6.75723 20.7663 10.0393
60 4 1 8.91441 21.8014 10.4156
62 4 1 8.71624 19.3152 10.4144
64 4 3 9.03557 16.9091 10.3437
66 4 2 3.4959 16.7309 9.43732
67 4 2 4.1197 17.3862 11.0014
61 4 1 9.5339 20.5338 10.3238
63 4 1 9.5913 18.0597 10.3963
65 4 3 10.7275 18.1587 11.2018
72 4 2 10.5802 20.5312 10.7551
73 4 2 11.4692 17.5134 10.9856
71 4 2 9.55347 22.6733 10.3203
ITEM: TIMESTEP
360
ITEM: NUMBER OF ATOMS
115
ITEM: BOX BOUNDS pp pp pp
-2.8628399999999999e+01 2.8628399999999999e+01
-2.8628399999999999e+01 2.8628399999999999e+01
-2.8628399999999999e+01 2.8628399999999999e+01
ITEM: ATOMS id mol type x y z
74 5 1 12.307 -12.4065 -11.5199
75 5 1 13.1924 -11.49 -12.3366
76 5 3 13.3992 -11.7081 -13.5485
77 5 3 14.3657 -11.2306 -11.6076
78 5 1 15.1687 -10.0921 -11.805
87 5 2 11.3775 -12.6193 -12.0463
88 5 2 12.0659 -11.8971 -10.4791
89 5 2 12.8594 -13.3613 -11.3929
83 5 1 16.4948 -10.113 -11.1266
84 5 1 17.2902 -11.4356 -11.1706
85 5 3 16.7266 -12.5352 -11.0423
86 5 3 18.6561 -11.4019 -10.9536
94 5 2 19.1913 -12.2327 -10.9416
79 5 1 14.5613 -8.76992 -11.7974
80 5 1 15.4243 -7.64566 -11.8197
90 5 2 13.7547 -8.66395 -12.5345
91 5 2 14.9607 -6.64296 -11.9864
81 5 1 16.5873 -7.68527 -11.1679
82 5 1 17.2334 -8.90936 -11.0792
92 5 2 17.3145 -6.86314 -11.2961
93 5 2 18.1207 -8.9976 -10.4961
97 6 3 16.2933 17.1558 -9.75459
110 6 2 15.3674 16.1426 -7.1301
95 6 1 15.0181 17.0807 -7.65705
108 6 2 14.1007 16.8878 -8.31968
109 6 2 14.7506 17.8104 -6.80064
96 6 1 16.0747 17.59 -8.56364
98 6 3 17.2218 18.1439 -7.8893
99 6 1 18.1938 19.107 -8.35096
100 6 1 17.6131 20.4152 -8.60742
101 6 1 18.4072 21.4735 -8.9128
102 6 1 19.7418 21.473 -8.51768
103 6 1 20.3035 20.3008 -7.99224
104 6 1 19.4443 19.1624 -7.68821
105 6 1 20.2692 17.9603 -7.46898
106 6 3 19.6998 16.8056 -7.2216
107 6 3 21.4055 18.0657 -6.62045
111 6 2 16.6467 20.4383 -8.9345
114 6 2 21.2159 20.4622 -7.37705
115 6 2 21.9731 17.2347 -6.5539
112 6 2 17.9298 22.4438 -9.09878
113 6 2 20.4548 22.1875 -8.92007
32 3 1 15.5225 -6.36041 6.75536
45 3 2 14.5169 -6.33219 6.28612
46 3 2 15.4609 -6.22733 7.85784
33 3 1 16.4563 -5.41565 6.06326
34 3 3 16.6301 -5.44984 4.78559
35 3 3 17.6338 -5.00798 6.85934
36 3 1 18.4899 -3.93946 6.43005
41 3 1 19.8352 -3.98542 6.93678
42 3 1 20.608 -5.34543 7.07964
43 3 3 20.0273 -6.35678 7.60576
44 3 3 21.9271 -5.30561 7.46327
47 3 2 15.8539 -7.41694 6.58072
52 3 2 22.2167 -4.84251 8.22334
37 3 1 17.9415 -2.63324 6.30887
38 3 1 18.6883 -1.62624 5.72298
39 3 1 20.0217 -1.66647 6.2349
40 3 1 20.614 -2.92212 6.396
48 3 2 16.94 -2.56275 5.88946
49 3 2 18.2929 -0.660065 5.46395
50 3 2 20.5918 -0.761557 5.81924
51 3 2 21.6992 -2.85115 6.63777
54 4 1 5.4166 17.8478 9.44944
55 4 3 5.75598 17.471 8.33356
59 4 1 7.57461 21.7877 9.74446
69 4 2 5.70804 20.7397 9.74481
70 4 2 7.11178 22.7196 9.64467
11 2 1 -12.2535 -24.2697 12.2614
12 2 1 -11.3428 -23.2322 11.6994
13 2 3 -11.0756 -23.3437 10.4394
14 2 3 -10.2326 -22.9322 12.4835
24 2 2 -13.1748 -24.4073 11.6752
25 2 2 -12.6912 -23.9268 13.2849
26 2 2 -11.6746 -25.2425 12.3311
20 2 1 -7.94971 -22.0956 12.6124
21 2 1 -7.19936 -23.4983 12.6555
22 2 3 -7.79377 -24.6485 12.4849
23 2 3 -6.04216 -23.5497 13.4291
31 2 2 -5.32849 -24.279 13.3693
16 2 1 -9.82353 -20.5585 12.1083
27 2 2 -10.7823 -20.3721 11.5755
28 2 2 -9.39741 -18.4927 11.864
15 2 1 -9.31653 -21.9264 12.2014
17 2 1 -8.92224 -19.4942 11.9268
18 2 1 -7.62843 -19.6789 12.4475
19 2 1 -7.02281 -20.9691 12.3869
29 2 2 -6.94542 -18.781 12.3574
30 2 2 -6.11708 -21.0776 12.9145
1 1 1 18.7205 7.81767 13.2449
2 1 1 20.0118 7.65665 13.5432
3 1 1 20.7216 8.52115 14.5031
4 1 3 20.0472 9.21147 15.2714
6 1 2 18.0711 8.46673 13.7482
7 1 2 18.185 7.13036 12.5769
8 1 2 20.5475 6.8737 12.933
5 1 4 22.1194 8.29717 14.912
9 1 2 22.7102 7.54648 14.4889
10 1 2 22.5864 8.98174 15.4262
68 4 2 4.91087 15.9295 10.136
53 4 1 4.47395 16.8944 10.0379
56 4 3 6.4619 18.3306 10.2159
57 4 1 7.37636 19.3425 9.89525
58 4 1 6.79333 20.6611 9.88035
60 4 1 8.75081 21.7092 10.4304
62 4 1 8.71484 19.2838 10.5184
64 4 3 8.98293 16.8543 10.4139
66 4 2 3.50768 16.8708 9.41862
67 4 2 4.28759 17.2922 11.0381
61 4 1 9.39614 20.4999 10.4406
63 4 1 9.52022 18.0035 10.4689
65 4 3 10.8136 18.054 11.1363
72 4 2 10.4087 20.5747 10.8447
73 4 2 11.5106 17.3668 11.0468
71 4 2 9.38293 22.5335 10.3933
ITEM: TIMESTEP
380
ITEM: NUMBER OF ATOMS
115
ITEM: BOX BOUNDS pp pp pp
-2.8628399999999999e+01 2.8628399999999999e+01
-2.8628399999999999e+01 2.8628399999999999e+01
-2.8628399999999999e+01 2.8628399999999999e+01
ITEM: ATOMS id mol type x y z
74 5 1 12.3219 -12.396 -11.4666
75 5 1 13.2662 -11.5035 -12.2966
76 5 3 13.3845 -11.7886 -13.469
77 5 3 14.4285 -11.133 -11.6361
78 5 1 15.1758 -10.0443 -11.8723
87 5 2 11.3468 -12.4118 -11.988
88 5 2 12.1236 -11.9518 -10.5115
89 5 2 12.7003 -13.3602 -11.3264
83 5 1 16.4119 -10.1498 -11.0589
84 5 1 17.2405 -11.4413 -11.1302
85 5 3 16.7887 -12.5892 -11.0715
86 5 3 18.6709 -11.4214 -10.9964
94 5 2 19.0694 -12.2667 -10.5639
79 5 1 14.4838 -8.79846 -11.7965
80 5 1 15.3293 -7.6354 -11.864
90 5 2 13.4807 -8.69092 -12.2668
91 5 2 14.7465 -6.78583 -11.8479
81 5 1 16.5067 -7.66509 -11.1448
82 5 1 17.178 -8.9201 -11.1006
92 5 2 17.2203 -6.79616 -11.1195
93 5 2 18.0881 -8.92407 -10.4923
97 6 3 16.2738 17.1515 -9.66551
110 6 2 15.3382 16.1518 -7.44141
95 6 1 14.9815 17.0613 -7.73946
108 6 2 14.0849 17.016 -8.39846
109 6 2 14.745 17.6665 -6.86225
96 6 1 16.046 17.7467 -8.59625
98 6 3 17.2454 18.1618 -7.99698
99 6 1 18.1926 19.1422 -8.3459
100 6 1 17.6065 20.3869 -8.58042
101 6 1 18.4608 21.4268 -8.96197
102 6 1 19.7348 21.5229 -8.44007
103 6 1 20.3514 20.2898 -8.04031
104 6 1 19.4785 19.1941 -7.64046
105 6 1 20.2962 17.9492 -7.40084
106 6 3 19.7264 16.8113 -7.2026
107 6 3 21.3383 18.0063 -6.59773
111 6 2 16.7038 20.3445 -9.13238
114 6 2 21.2916 20.3498 -7.68019
115 6 2 22.0136 17.276 -6.62058
112 6 2 17.9727 22.3916 -9.02447
113 6 2 20.3961 22.2702 -8.81078
32 3 1 15.5293 -6.37557 6.65269
45 3 2 14.5519 -6.29078 6.12833
46 3 2 15.3683 -6.33284 7.72001
33 3 1 16.4749 -5.3948 6.08961
34 3 3 16.6268 -5.36104 4.85531
35 3 3 17.634 -5.00383 6.78111
36 3 1 18.4349 -3.94745 6.45738
41 3 1 19.8239 -3.92731 6.95793
42 3 1 20.6232 -5.23418 7.1632
43 3 3 19.9945 -6.28059 7.61074
44 3 3 21.9548 -5.26182 7.48177
47 3 2 15.9155 -7.41866 6.57019
52 3 2 22.3164 -4.72169 8.26641
37 3 1 17.8908 -2.62876 6.26795
38 3 1 18.6718 -1.62722 5.69542
39 3 1 20.0658 -1.61733 6.1008
40 3 1 20.5566 -2.88719 6.29056
48 3 2 16.8412 -2.48734 6.04296
49 3 2 18.3038 -0.643707 5.7341
50 3 2 20.6323 -0.766095 5.58632
51 3 2 21.62 -2.81986 6.44367
54 4 1 5.45541 17.8582 9.50401
55 4 3 5.846 17.5133 8.34049
59 4 1 7.5069 21.7686 9.73806
69 4 2 5.82939 20.5323 9.2793
70 4 2 6.92327 22.7156 9.80406
11 2 1 -12.1954 -24.2219 12.2664
12 2 1 -11.281 -23.2517 11.6964
13 2 3 -11.017 -23.4432 10.4786
14 2 3 -10.2872 -22.8828 12.572
24 2 2 -13.1128 -24.2229 11.6274
25 2 2 -12.5185 -24.0248 13.228
26 2 2 -11.6929 -25.2443 12.3392
20 2 1 -7.95957 -22.1361 12.6702
21 2 1 -7.25404 -23.4464 12.6309
22 2 3 -7.90475 -24.5016 12.5372
23 2 3 -6.08436 -23.5638 13.3902
31 2 2 -5.40811 -24.2503 13.2383
16 2 1 -9.84474 -20.5682 12.1805
27 2 2 -10.8317 -20.4593 11.7713
28 2 2 -9.4124 -18.4826 12.0302
15 2 1 -9.31324 -21.9384 12.1908
17 2 1 -8.95227 -19.5124 11.936
18 2 1 -7.67469 -19.711 12.4606
19 2 1 -7.10213 -20.9881 12.407
29 2 2 -7.05512 -18.9047 12.2257
30 2 2 -6.0382 -21.0386 12.6169
1 1 1 18.6775 7.81341 13.319
2 1 1 20.0083 7.77481 13.5819
3 1 1 20.731 8.61857 14.5934
4 1 3 20.0777 9.30557 15.33
6 1 2 17.9762 8.58361 13.794
7 1 2 18.2553 7.17507 12.5547
8 1 2 20.4941 7.07894 13.025
5 1 4 22.1079 8.21376 14.9544
9 1 2 22.7449 7.6313 14.2949
10 1 2 22.6613 8.90192 15.5031
68 4 2 4.96174 15.7248 10.1449
53 4 1 4.55525 16.8036 10.1477
56 4 3 6.54924 18.3488 10.2712
57 4 1 7.38618 19.3509 9.91969
58 4 1 6.75118 20.6019 9.78414
60 4 1 8.69345 21.6744 10.46
62 4 1 8.64892 19.2802 10.6324
64 4 3 8.95982 16.8797 10.3818
66 4 2 3.61836 16.7744 9.64951
67 4 2 4.35468 17.1728 11.2076
61 4 1 9.45243 20.4581 10.5133
63 4 1 9.48565 18.0227 10.5986
65 4 3 10.7713 17.9606 11.1228
72 4 2 10.3143 20.5589 11.1112
73 4 2 11.5949 17.4367 10.7317
71 4 2 9.25706 22.6096 10.5385
ITEM: TIMESTEP
400
ITEM: NUMBER OF ATOMS
115
ITEM: BOX BOUNDS pp pp pp
-2.8628399999999999e+01 2.8628399999999999e+01
-2.8628399999999999e+01 2.8628399999999999e+01
-2.8628399999999999e+01 2.8628399999999999e+01
ITEM: ATOMS id mol type x y z
74 5 1 12.3796 -12.4266 -11.3504
75 5 1 13.2414 -11.5387 -12.2455
76 5 3 13.271 -11.8206 -13.4469
77 5 3 14.4671 -11.1806 -11.6857
78 5 1 15.2403 -10.0481 -11.8707
87 5 2 11.3121 -12.5405 -11.7098
88 5 2 12.3795 -12.0332 -10.3363
89 5 2 12.877 -13.4595 -11.2762
83 5 1 16.4519 -10.202 -11.0785
84 5 1 17.2266 -11.5312 -11.1231
85 5 3 16.8787 -12.7201 -11.0679
86 5 3 18.604 -11.4582 -10.9428
94 5 2 19.0093 -11.8669 -10.1024
79 5 1 14.5484 -8.7838 -11.7913
80 5 1 15.3211 -7.68222 -11.8521
90 5 2 13.656 -8.70274 -12.2992
91 5 2 14.8639 -6.67462 -11.8946
81 5 1 16.5039 -7.74093 -11.1616
82 5 1 17.1883 -8.97765 -11.0601
92 5 2 17.2317 -6.86308 -11.3427
93 5 2 18.012 -8.99856 -10.3311
97 6 3 16.239 17.2372 -9.7238
110 6 2 15.3186 16.0159 -7.56767
95 6 1 14.9768 17.0689 -7.86661
108 6 2 14.0532 16.9682 -8.55627
109 6 2 14.7313 17.6193 -6.97135
96 6 1 16.1017 17.7408 -8.59466
98 6 3 17.2461 18.1323 -7.82588
99 6 1 18.1912 19.1005 -8.2898
100 6 1 17.6018 20.3282 -8.6874
101 6 1 18.4225 21.4257 -9.0269
102 6 1 19.7162 21.5017 -8.4646
103 6 1 20.3337 20.2873 -8.17021
104 6 1 19.5066 19.186 -7.71925
105 6 1 20.2459 17.9448 -7.35718
106 6 3 19.644 16.7653 -7.31111
107 6 3 21.3758 18.0586 -6.60246
111 6 2 16.7181 20.3291 -9.33045
114 6 2 21.3187 20.3776 -7.70544
115 6 2 22.2061 17.5404 -6.82536
112 6 2 17.931 22.3927 -9.43303
113 6 2 20.4508 22.1911 -8.86192
32 3 1 15.5351 -6.3102 6.60103
45 3 2 14.5208 -6.26944 6.07272
46 3 2 15.3495 -6.11585 7.7565
33 3 1 16.4536 -5.2361 6.04586
34 3 3 16.5467 -5.31446 4.80933
35 3 3 17.5962 -4.97446 6.8628
36 3 1 18.4907 -3.86412 6.46589
41 3 1 19.8657 -3.90636 6.85994
42 3 1 20.6074 -5.17476 7.22877
43 3 3 19.9964 -6.22986 7.71595
44 3 3 21.9981 -5.15745 7.39696
47 3 2 15.9002 -7.3269 6.59547
52 3 2 22.3841 -4.58383 8.11751
37 3 1 17.8599 -2.60093 6.35633
38 3 1 18.6133 -1.5833 5.70579
39 3 1 20.0174 -1.6378 6.03659
40 3 1 20.6458 -2.83761 6.22737
48 3 2 16.8111 -2.56633 6.16849
49 3 2 18.2375 -0.636303 5.42632
50 3 2 20.5338 -0.892062 5.45434
51 3 2 21.724 -2.74036 6.43413
54 4 1 5.62861 17.7455 9.50397
55 4 3 5.87753 17.503 8.3052
59 4 1 7.57947 21.7014 9.8039
69 4 2 5.93802 20.7064 9.21612
70 4 2 7.06609 22.6014 9.65804
11 2 1 -12.2734 -24.2483 12.2138
12 2 1 -11.2555 -23.2902 11.6297
13 2 3 -10.9632 -23.3707 10.4138
14 2 3 -10.2552 -22.9145 12.5614
24 2 2 -13.2665 -24.2171 11.6754
25 2 2 -12.4765 -24.0307 13.2969
26 2 2 -11.9113 -25.2552 12.1777
20 2 1 -7.95688 -22.0759 12.766
21 2 1 -7.34085 -23.4048 12.6429
22 2 3 -8.02909 -24.4675 12.5512
23 2 3 -6.18197 -23.5881 13.3871
31 2 2 -5.50906 -24.3609 13.18
16 2 1 -9.85787 -20.6144 12.2428
27 2 2 -10.8545 -20.5143 11.8376
28 2 2 -9.30017 -18.6508 11.9809
15 2 1 -9.31024 -21.9419 12.262
17 2 1 -8.8947 -19.5871 11.931
18 2 1 -7.64468 -19.7035 12.4332
19 2 1 -7.11878 -21.0073 12.3714
29 2 2 -7.05092 -18.829 12.2419
30 2 2 -6.2014 -21.057 12.7395
1 1 1 18.6736 7.81627 13.457
2 1 1 20.0206 7.82043 13.6471
3 1 1 20.765 8.64216 14.5981
4 1 3 20.1328 9.42267 15.374
6 1 2 18.0114 8.49097 13.9891
7 1 2 18.3128 7.21592 12.6373
8 1 2 20.5463 7.22128 12.8802
5 1 4 22.0785 8.31027 14.8962
9 1 2 22.6862 7.63425 14.4214
10 1 2 22.5442 8.87953 15.6185
68 4 2 4.95812 15.7407 10.2175
53 4 1 4.68395 16.7978 10.1737
56 4 3 6.52649 18.3496 10.333
57 4 1 7.40958 19.3797 9.98386
58 4 1 6.74361 20.6489 9.86607
60 4 1 8.73 21.7416 10.5854
62 4 1 8.64437 19.3123 10.6246
64 4 3 8.96839 16.8607 10.2627
66 4 2 3.78329 16.684 9.46573
67 4 2 4.3278 17.1321 11.1525
61 4 1 9.44358 20.5663 10.5755
63 4 1 9.4428 17.9985 10.5976
65 4 3 10.6642 17.9416 11.1326
72 4 2 10.4184 20.561 11.1289
73 4 2 11.3478 17.4002 10.7161
71 4 2 9.31714 22.6849 10.4566
ITEM: TIMESTEP
420
ITEM: NUMBER OF ATOMS
115
ITEM: BOX BOUNDS pp pp pp
-2.8628399999999999e+01 2.8628399999999999e+01
-2.8628399999999999e+01 2.8628399999999999e+01
-2.8628399999999999e+01 2.8628399999999999e+01
ITEM: ATOMS id mol type x y z
74 5 1 12.5212 -12.5257 -11.3308
75 5 1 13.233 -11.5854 -12.2109
76 5 3 13.2936 -11.7898 -13.4664
77 5 3 14.4266 -11.2567 -11.6566
78 5 1 15.2028 -10.1182 -11.8732
87 5 2 11.4843 -12.6495 -11.6854
88 5 2 12.5267 -12.2728 -10.2316
89 5 2 13.0076 -13.6066 -11.4396
83 5 1 16.4943 -10.2126 -11.0663
84 5 1 17.2767 -11.5078 -11.1397
85 5 3 16.8164 -12.681 -11.0762
86 5 3 18.5875 -11.4184 -10.7951
94 5 2 18.7704 -11.3045 -9.85655
79 5 1 14.5168 -8.86495 -11.8084
80 5 1 15.3132 -7.69982 -11.8621
90 5 2 13.5544 -8.84442 -12.4247
91 5 2 14.7221 -6.7714 -11.8593
81 5 1 16.5468 -7.71463 -11.2053
82 5 1 17.2595 -8.96945 -11.0775
92 5 2 17.0921 -6.85621 -11.1672
93 5 2 18.1274 -8.93082 -10.4119
97 6 3 16.3481 17.3319 -9.67185
110 6 2 15.4441 16.0144 -7.38514
95 6 1 15.0364 17.0255 -7.76419
108 6 2 14.1542 16.8879 -8.45179
109 6 2 14.7527 17.7515 -6.97878
96 6 1 16.1098 17.6987 -8.50993
98 6 3 17.2439 18.1217 -7.76968
99 6 1 18.1747 19.0455 -8.27239
100 6 1 17.5715 20.3305 -8.62094
101 6 1 18.4009 21.3612 -9.16966
102 6 1 19.6352 21.4657 -8.49848
103 6 1 20.3003 20.2541 -8.12992
104 6 1 19.4339 19.15 -7.69284
105 6 1 20.2851 17.9096 -7.44559
106 6 3 19.6573 16.7907 -7.34561
107 6 3 21.4357 18.0406 -6.59155
111 6 2 16.55 20.3928 -9.14271
114 6 2 21.3432 20.3704 -7.81136
115 6 2 22.3322 17.438 -6.68054
112 6 2 17.8624 22.2858 -9.25527
113 6 2 20.3022 22.271 -8.83391
32 3 1 15.4923 -6.18191 6.7334
45 3 2 14.5574 -6.36218 6.13244
46 3 2 15.3066 -5.87532 7.74533
33 3 1 16.4355 -5.27326 6.00812
34 3 3 16.5458 -5.224 4.78688
35 3 3 17.534 -4.92371 6.80943
36 3 1 18.4696 -3.86411 6.49067
41 3 1 19.8898 -3.90046 6.81144
42 3 1 20.5957 -5.159 7.17412
43 3 3 19.9714 -6.10398 7.8164
44 3 3 21.9438 -5.11896 7.34594
47 3 2 15.9488 -7.19168 6.83198
52 3 2 22.475 -5.01705 8.26764
37 3 1 17.8811 -2.64217 6.45365
38 3 1 18.5627 -1.67148 5.82808
39 3 1 19.9567 -1.5862 6.02197
40 3 1 20.63 -2.83681 6.21798
48 3 2 16.7844 -2.61467 6.18744
49 3 2 18.1624 -0.636847 5.96267
50 3 2 20.4409 -0.743652 5.58825
51 3 2 21.7474 -2.80183 6.44569
54 4 1 5.56392 17.8233 9.43478
55 4 3 5.87575 17.5741 8.25043
59 4 1 7.58524 21.8594 9.87792
69 4 2 5.81548 20.7483 9.32954
70 4 2 7.21876 22.8213 9.55973
11 2 1 -12.3002 -24.2657 12.2092
12 2 1 -11.287 -23.2837 11.6592
13 2 3 -10.9458 -23.2879 10.4524
14 2 3 -10.2395 -22.9481 12.5114
24 2 2 -13.1048 -24.3941 11.496
25 2 2 -12.6937 -23.8771 13.1951
26 2 2 -11.741 -25.2145 12.3545
20 2 1 -7.98124 -22.1257 12.7739
21 2 1 -7.3811 -23.4903 12.7154
22 2 3 -8.09405 -24.5556 12.5366
23 2 3 -6.18444 -23.653 13.4257
31 2 2 -5.46948 -24.4121 13.1953
16 2 1 -9.81624 -20.6009 12.2794
27 2 2 -10.8278 -20.3509 11.9124
28 2 2 -9.41847 -18.5978 12.1244
15 2 1 -9.35663 -21.9339 12.2775
17 2 1 -8.96194 -19.5613 11.9728
18 2 1 -7.62479 -19.738 12.4846
19 2 1 -7.11697 -21.0716 12.3831
29 2 2 -6.97084 -18.8394 12.1415
30 2 2 -6.01658 -21.1852 12.4709
1 1 1 18.7432 7.76542 13.501
2 1 1 20.0686 7.82684 13.5986
3 1 1 20.7649 8.63484 14.6639
4 1 3 20.1592 9.50082 15.4286
6 1 2 18.0982 8.32195 14.0852
7 1 2 18.3145 7.1137 12.742
8 1 2 20.6811 7.18647 12.949
5 1 4 22.1711 8.45648 14.8668
9 1 2 22.7225 7.7034 14.4638
10 1 2 22.618 9.0419 15.6544
68 4 2 5.28799 15.8515 10.1327
53 4 1 4.68935 16.7872 10.1491
56 4 3 6.59881 18.3663 10.2323
57 4 1 7.44317 19.4326 9.99339
58 4 1 6.79649 20.6819 9.92184
60 4 1 8.80092 21.7771 10.6378
62 4 1 8.70458 19.3194 10.5972
64 4 3 8.87457 16.9844 10.1812
66 4 2 3.6836 16.5433 9.6744
67 4 2 4.53139 17.0079 11.2182
61 4 1 9.45833 20.5326 10.5858
63 4 1 9.4813 18.0527 10.4118
65 4 3 10.7054 17.9863 11.0972
72 4 2 10.3761 20.4792 11.0571
73 4 2 11.4817 17.3875 10.7684
71 4 2 9.34407 22.619 10.6338
ITEM: TIMESTEP
440
ITEM: NUMBER OF ATOMS
115
ITEM: BOX BOUNDS pp pp pp
-2.8628399999999999e+01 2.8628399999999999e+01
-2.8628399999999999e+01 2.8628399999999999e+01
-2.8628399999999999e+01 2.8628399999999999e+01
ITEM: ATOMS id mol type x y z
74 5 1 12.492 -12.6619 -11.3609
75 5 1 13.1844 -11.6663 -12.1156
76 5 3 13.2264 -11.888 -13.378
77 5 3 14.4487 -11.2468 -11.6081
78 5 1 15.2314 -10.1597 -11.7859
87 5 2 11.4811 -12.8435 -11.7312
88 5 2 12.4916 -12.3205 -10.2569
89 5 2 13.039 -13.6072 -11.4468
83 5 1 16.5057 -10.1332 -11.111
84 5 1 17.3119 -11.3999 -11.2031
85 5 3 16.7896 -12.556 -10.9759
86 5 3 18.6315 -11.3981 -10.6349
94 5 2 18.7544 -11.3005 -9.58476
79 5 1 14.5581 -8.89438 -11.8653
80 5 1 15.3119 -7.70662 -11.9048
90 5 2 13.5548 -8.89097 -12.3026
91 5 2 14.6494 -6.86382 -11.8424
81 5 1 16.5163 -7.71155 -11.2201
82 5 1 17.2152 -8.89006 -11.2217
92 5 2 17.117 -6.79656 -11.2883
93 5 2 18.1132 -8.81579 -10.7269
97 6 3 16.3458 17.3615 -9.66262
110 6 2 15.3113 15.9299 -7.54898
95 6 1 15.0681 16.9761 -7.62618
108 6 2 14.1321 17.1737 -8.13445
109 6 2 14.9705 17.4826 -6.61229
96 6 1 16.0941 17.6913 -8.45092
98 6 3 17.2579 18.1598 -7.8361
99 6 1 18.1578 19.1051 -8.37067
100 6 1 17.5376 20.3796 -8.59131
101 6 1 18.3999 21.3256 -9.19808
102 6 1 19.6162 21.4749 -8.58725
103 6 1 20.2564 20.2685 -8.1817
104 6 1 19.4217 19.164 -7.79452
105 6 1 20.2219 17.9265 -7.46446
106 6 3 19.6063 16.8591 -7.18281
107 6 3 21.399 18.0323 -6.66395
111 6 2 16.6086 20.5514 -9.00999
114 6 2 21.1071 20.4627 -7.60087
115 6 2 22.0507 17.3444 -6.43503
112 6 2 17.9218 22.209 -9.58795
113 6 2 20.2764 22.2673 -8.90544
32 3 1 15.4412 -6.07382 6.69523
45 3 2 14.4119 -6.10357 6.13013
46 3 2 15.3345 -5.80059 7.72315
33 3 1 16.4157 -5.16074 6.01264
34 3 3 16.5138 -5.18867 4.78113
35 3 3 17.6003 -4.9657 6.73938
36 3 1 18.493 -3.89638 6.38152
41 3 1 19.8756 -3.81733 6.92689
42 3 1 20.5555 -5.16201 7.13706
43 3 3 19.9894 -6.11855 7.79186
44 3 3 21.9318 -5.22076 7.32754
47 3 2 15.815 -7.12106 6.78084
52 3 2 22.3555 -5.28321 8.23852
37 3 1 17.8128 -2.6391 6.36155
38 3 1 18.5924 -1.59676 5.88782
39 3 1 20.0193 -1.61858 6.09108
40 3 1 20.6318 -2.84815 6.16058
48 3 2 16.7386 -2.51252 6.24006
49 3 2 18.1349 -0.599722 5.82205
50 3 2 20.6303 -0.897139 5.43462
51 3 2 21.671 -2.90127 6.38491
54 4 1 5.5561 17.8859 9.37609
55 4 3 5.85133 17.5787 8.21909
59 4 1 7.66871 21.8127 9.84664
69 4 2 5.86549 20.8935 9.44089
70 4 2 7.19107 22.8347 10.0607
11 2 1 -12.3178 -24.3079 12.0848
12 2 1 -11.3804 -23.185 11.6651
13 2 3 -11.0067 -23.3212 10.4835
14 2 3 -10.2983 -22.9042 12.5722
24 2 2 -13.1257 -24.4038 11.4144
25 2 2 -12.6513 -24.1432 13.1319
26 2 2 -11.7674 -25.2964 12.1903
20 2 1 -8.04415 -22.1538 12.7188
21 2 1 -7.34569 -23.4995 12.6465
22 2 3 -8.05271 -24.5729 12.5953
23 2 3 -6.16959 -23.6205 13.3995
31 2 2 -5.75434 -24.4337 13.6675
16 2 1 -9.82771 -20.5725 12.3737
27 2 2 -10.7205 -20.2732 11.9838
28 2 2 -9.25258 -18.5152 12.1714
15 2 1 -9.37077 -21.941 12.2683
17 2 1 -8.95873 -19.5237 12.0597
18 2 1 -7.61902 -19.7382 12.4917
19 2 1 -7.2249 -21.0653 12.3875
29 2 2 -6.94213 -18.9567 12.3174
30 2 2 -6.18992 -21.1379 12.6867
1 1 1 18.8075 7.75156 13.572
2 1 1 20.126 7.81462 13.6774
3 1 1 20.7847 8.5736 14.733
4 1 3 20.1953 9.42316 15.3657
6 1 2 18.1381 8.24642 14.2473
7 1 2 18.3088 7.18117 12.7525
8 1 2 20.7421 7.28084 12.9762
5 1 4 22.1991 8.55373 14.8635
9 1 2 22.5894 7.61351 14.4561
10 1 2 22.7785 9.04583 15.5915
68 4 2 5.29895 15.8202 10.2156
53 4 1 4.77813 16.844 10.0836
56 4 3 6.57065 18.3919 10.1711
57 4 1 7.38921 19.4968 10.0138
58 4 1 6.78663 20.7436 10.0356
60 4 1 8.92455 21.8043 10.516
62 4 1 8.7769 19.388 10.622
64 4 3 8.90921 17.0194 10.2453
66 4 2 3.89933 16.667 9.54956
67 4 2 4.53324 17.212 11.0684
61 4 1 9.57097 20.5823 10.5651
63 4 1 9.48743 18.126 10.3615
65 4 3 10.7243 17.9869 10.9595
72 4 2 10.524 20.6156 11.1129
73 4 2 11.4635 17.3346 10.7299
71 4 2 9.54456 22.6586 10.4518
ITEM: TIMESTEP
460
ITEM: NUMBER OF ATOMS
115
ITEM: BOX BOUNDS pp pp pp
-2.8628399999999999e+01 2.8628399999999999e+01
-2.8628399999999999e+01 2.8628399999999999e+01
-2.8628399999999999e+01 2.8628399999999999e+01
ITEM: ATOMS id mol type x y z
74 5 1 12.4809 -12.7682 -11.3932
75 5 1 13.2542 -11.7389 -12.1447
76 5 3 13.2142 -11.8412 -13.4031
77 5 3 14.4331 -11.2678 -11.5583
78 5 1 15.2633 -10.1538 -11.8767
87 5 2 11.4172 -12.9189 -11.7573
88 5 2 12.4902 -12.4372 -10.3661
89 5 2 13.0172 -13.6837 -11.4563
83 5 1 16.5912 -10.163 -11.1985
84 5 1 17.4165 -11.3792 -11.1948
85 5 3 16.7888 -12.4493 -10.9608
86 5 3 18.6456 -11.3988 -10.5556
94 5 2 18.7809 -11.4681 -9.54581
79 5 1 14.5518 -8.8779 -11.8652
80 5 1 15.2988 -7.6571 -11.9387
90 5 2 13.6866 -8.95192 -12.3348
91 5 2 14.7426 -6.76768 -11.9536
81 5 1 16.4867 -7.61462 -11.2303
82 5 1 17.3167 -8.8177 -11.2843
92 5 2 16.9557 -6.62243 -11.4068
93 5 2 18.2501 -8.64772 -10.7575
97 6 3 16.2019 17.3454 -9.673
110 6 2 15.5657 16.066 -7.36013
95 6 1 15.0903 17.0344 -7.55568
108 6 2 14.0587 16.9595 -7.99142
109 6 2 15.1042 17.599 -6.57455
96 6 1 16.065 17.7545 -8.46459
98 6 3 17.2289 18.2082 -7.79924
99 6 1 18.1251 19.1544 -8.36247
100 6 1 17.4875 20.4071 -8.67076
101 6 1 18.3217 21.4066 -9.20497
102 6 1 19.557 21.4217 -8.62646
103 6 1 20.2407 20.1992 -8.27259
104 6 1 19.4699 19.1593 -7.78464
105 6 1 20.2318 17.8932 -7.40993
106 6 3 19.5528 16.8703 -7.13143
107 6 3 21.3384 18.0428 -6.68437
111 6 2 16.4813 20.4831 -9.21192
114 6 2 21.2248 20.3348 -7.84179
115 6 2 21.7414 17.2391 -6.28059
112 6 2 17.822 22.3755 -9.43963
113 6 2 20.2316 22.1437 -9.0344
32 3 1 15.4937 -6.08453 6.60214
45 3 2 14.4313 -5.93544 6.31326
46 3 2 15.6065 -5.87505 7.75455
33 3 1 16.41 -5.16783 5.95785
34 3 3 16.4788 -5.23172 4.73606
35 3 3 17.6696 -4.9783 6.62368
36 3 1 18.414 -3.84332 6.55156
41 3 1 19.8263 -3.95802 6.87222
42 3 1 20.5386 -5.24339 7.10933
43 3 3 19.9468 -6.06449 7.79765
44 3 3 21.8976 -5.25953 7.22662
47 3 2 15.8363 -7.14372 6.57178
52 3 2 22.4212 -4.81057 7.99666
37 3 1 17.8288 -2.55057 6.39841
38 3 1 18.6064 -1.48433 5.86591
39 3 1 19.9942 -1.59629 6.01564
40 3 1 20.5831 -2.93604 6.19221
48 3 2 16.8601 -2.4959 6.1414
49 3 2 18.2773 -0.563786 5.49424
50 3 2 20.6477 -0.863489 5.56571
51 3 2 21.5815 -2.92243 6.42326
54 4 1 5.58223 17.8133 9.3789
55 4 3 5.89336 17.5854 8.16985
59 4 1 7.60503 21.8376 9.85473
69 4 2 5.80703 20.9317 9.61155
70 4 2 7.13428 22.765 9.56994
11 2 1 -12.2368 -24.3452 12.0429
12 2 1 -11.3433 -23.2447 11.6424
13 2 3 -11.0285 -23.2758 10.4669
14 2 3 -10.4167 -22.8624 12.5725
24 2 2 -12.9882 -24.467 11.2138
25 2 2 -12.8224 -24.1544 13.0067
26 2 2 -11.6462 -25.2852 12.1932
20 2 1 -8.03184 -22.1391 12.7177
21 2 1 -7.34131 -23.5162 12.6914
22 2 3 -8.03817 -24.5767 12.5672
23 2 3 -6.18225 -23.655 13.4564
31 2 2 -5.97976 -24.4604 13.9993
16 2 1 -9.91031 -20.5437 12.2857
27 2 2 -10.9209 -20.3923 11.955
28 2 2 -9.29498 -18.4645 11.9137
15 2 1 -9.39857 -21.8853 12.3099
17 2 1 -8.9717 -19.5226 12.0012
18 2 1 -7.67828 -19.692 12.4886
19 2 1 -7.14504 -21.0177 12.4544
29 2 2 -6.99403 -18.8885 12.1195
30 2 2 -6.20999 -21.0801 12.8144
1 1 1 18.8354 7.70317 13.6333
2 1 1 20.1498 7.75738 13.7555
3 1 1 20.8082 8.55858 14.7572
4 1 3 20.2843 9.53073 15.3844
6 1 2 18.2169 8.25821 14.3191
7 1 2 18.3511 7.07303 12.9335
8 1 2 20.6409 7.18037 13.0199
5 1 4 22.314 8.46862 14.9194
9 1 2 22.8221 7.63587 14.5214
10 1 2 22.7011 8.84146 15.7772
68 4 2 5.31844 15.8802 10.3345
53 4 1 4.70119 16.8103 10.0638
56 4 3 6.56679 18.417 10.2399
57 4 1 7.42167 19.4688 10.0114
58 4 1 6.80347 20.7724 10.0853
60 4 1 8.94008 21.8441 10.2813
62 4 1 8.74945 19.3373 10.6175
64 4 3 8.93858 16.9242 10.2303
66 4 2 3.85693 16.4552 9.42703
67 4 2 4.29501 17.3205 11.0129
61 4 1 9.50965 20.53 10.4918
63 4 1 9.51832 18.0705 10.3134
65 4 3 10.7654 17.9337 10.8678
72 4 2 10.408 20.5582 11.0847
73 4 2 11.299 17.112 10.6458
71 4 2 9.65882 22.5744 9.83515
ITEM: TIMESTEP
480
ITEM: NUMBER OF ATOMS
115
ITEM: BOX BOUNDS pp pp pp
-2.8628399999999999e+01 2.8628399999999999e+01
-2.8628399999999999e+01 2.8628399999999999e+01
-2.8628399999999999e+01 2.8628399999999999e+01
ITEM: ATOMS id mol type x y z
74 5 1 12.4239 -12.7728 -11.434
75 5 1 13.3057 -11.745 -12.1742
76 5 3 13.2006 -11.7572 -13.4241
77 5 3 14.5161 -11.283 -11.5645
78 5 1 15.2793 -10.1062 -11.8125
87 5 2 11.4592 -12.7842 -12.0432
88 5 2 12.2543 -12.439 -10.433
89 5 2 12.8975 -13.7342 -11.5253
83 5 1 16.6042 -10.0975 -11.3034
84 5 1 17.4161 -11.3759 -11.18
85 5 3 16.8196 -12.464 -11.0144
86 5 3 18.7099 -11.3809 -10.5928
94 5 2 18.8479 -11.2449 -9.63776
79 5 1 14.6125 -8.85711 -11.9018
80 5 1 15.3574 -7.67145 -11.9378
90 5 2 13.6822 -8.83281 -12.483
91 5 2 14.7533 -6.84024 -11.8455
81 5 1 16.5828 -7.63846 -11.2879
82 5 1 17.2565 -8.84065 -11.2416
92 5 2 17.1755 -6.73548 -11.5008
93 5 2 18.1778 -8.72892 -10.7456
97 6 3 16.0636 17.2842 -9.57509
110 6 2 15.6191 16.1122 -7.29898
95 6 1 15.1238 17.07 -7.50717
108 6 2 14.1586 16.9281 -8.03405
109 6 2 14.9804 17.6047 -6.51721
96 6 1 16.1054 17.8491 -8.39695
98 6 3 17.2816 18.285 -7.83523
99 6 1 18.1477 19.1849 -8.37691
100 6 1 17.4924 20.3634 -8.71346
101 6 1 18.3443 21.4201 -9.24792
102 6 1 19.6352 21.4458 -8.64758
103 6 1 20.2231 20.1965 -8.40144
104 6 1 19.4384 19.1919 -7.7249
105 6 1 20.2036 17.9272 -7.38169
106 6 3 19.5922 16.8335 -7.061
107 6 3 21.355 18.0384 -6.61588
111 6 2 16.5278 20.4163 -9.2497
114 6 2 21.2121 20.3647 -7.94137
115 6 2 22.0077 17.2333 -6.46781
112 6 2 17.778 22.3647 -9.32899
113 6 2 20.3554 22.3003 -8.8801
32 3 1 15.4362 -6.18338 6.615
45 3 2 14.5579 -6.10506 6.03204
46 3 2 15.2485 -5.97799 7.70147
33 3 1 16.3679 -5.29409 5.87885
34 3 3 16.4281 -5.25543 4.6234
35 3 3 17.5529 -4.99906 6.66949
36 3 1 18.4215 -3.82173 6.5301
41 3 1 19.8267 -3.88615 6.87585
42 3 1 20.5045 -5.26103 7.05533
43 3 3 19.9484 -6.01874 7.89347
44 3 3 21.9293 -5.23103 7.20357
47 3 2 15.7501 -7.23996 6.61274
52 3 2 22.4106 -4.7301 7.97082
37 3 1 17.8777 -2.50103 6.44449
38 3 1 18.6228 -1.60772 5.80306
39 3 1 20.0358 -1.61703 6.08756
40 3 1 20.5767 -2.85542 6.20105
48 3 2 16.8653 -2.39848 6.22632
49 3 2 18.3106 -0.568339 5.73508
50 3 2 20.6809 -1.00217 5.46288
51 3 2 21.6493 -2.86247 6.25842
54 4 1 5.63415 17.7582 9.45212
55 4 3 5.84053 17.6257 8.23257
59 4 1 7.62959 21.8738 9.73794
69 4 2 5.77147 20.7971 9.84177
70 4 2 7.11399 22.7782 9.83898
11 2 1 -12.3445 -24.3574 12.0886
12 2 1 -11.3536 -23.3277 11.625
13 2 3 -11.0911 -23.2586 10.414
14 2 3 -10.3763 -22.8206 12.5952
24 2 2 -13.0769 -24.5211 11.311
25 2 2 -12.8812 -24.0033 12.9972
26 2 2 -11.7806 -25.257 12.3728
20 2 1 -8.03826 -22.0712 12.783
21 2 1 -7.36342 -23.4675 12.7542
22 2 3 -8.0407 -24.4895 12.589
23 2 3 -6.20747 -23.6971 13.5099
31 2 2 -6.08285 -24.5302 14.0688
16 2 1 -9.90024 -20.5287 12.2713
27 2 2 -10.909 -20.4244 11.8335
28 2 2 -9.35444 -18.5326 12.08
15 2 1 -9.40956 -21.858 12.2855
17 2 1 -9.00559 -19.5439 11.9528
18 2 1 -7.69936 -19.7164 12.5073
19 2 1 -7.14285 -21.0348 12.394
29 2 2 -7.0337 -18.8831 12.4413
30 2 2 -6.12158 -21.1882 12.8677
1 1 1 18.7561 7.69363 13.6901
2 1 1 20.1093 7.77581 13.7886
3 1 1 20.916 8.6502 14.7042
4 1 3 20.365 9.56718 15.3746
6 1 2 18.0258 8.33131 14.286
7 1 2 18.2853 6.99935 13.0504
8 1 2 20.6743 7.21914 13.0467
5 1 4 22.3032 8.42139 15.004
9 1 2 22.7504 7.54545 14.6873
10 1 2 22.6886 8.83236 15.866
68 4 2 5.32453 15.8429 10.2745
53 4 1 4.75028 16.7186 10.0621
56 4 3 6.57858 18.3189 10.3293
57 4 1 7.38002 19.4233 10.0378
58 4 1 6.82113 20.7123 10.0632
60 4 1 8.94523 21.8375 10.1074
62 4 1 8.77136 19.3406 10.5038
64 4 3 8.90275 16.9621 10.1445
66 4 2 3.84418 16.4108 9.41013
67 4 2 4.32084 17.1794 10.9634
61 4 1 9.51842 20.5665 10.4101
63 4 1 9.53932 18.0409 10.262
65 4 3 10.8369 17.9004 10.7665
72 4 2 10.5445 20.5266 10.8013
73 4 2 11.355 17.0587 10.6352
71 4 2 9.62807 22.6241 9.90822
ITEM: TIMESTEP
500
ITEM: NUMBER OF ATOMS
115
ITEM: BOX BOUNDS pp pp pp
-2.8628399999999999e+01 2.8628399999999999e+01
-2.8628399999999999e+01 2.8628399999999999e+01
-2.8628399999999999e+01 2.8628399999999999e+01
ITEM: ATOMS id mol type x y z
74 5 1 12.4295 -12.7187 -11.4682
75 5 1 13.2709 -11.7355 -12.2516
76 5 3 13.1389 -11.6832 -13.5018
77 5 3 14.4757 -11.2999 -11.5675
78 5 1 15.2929 -10.132 -11.7856
87 5 2 11.4264 -12.8762 -11.9373
88 5 2 12.2342 -12.2408 -10.4805
89 5 2 13.016 -13.6851 -11.2981
83 5 1 16.6097 -10.1044 -11.1285
84 5 1 17.506 -11.4134 -11.1824
85 5 3 16.86 -12.5204 -11.0116
86 5 3 18.7445 -11.3691 -10.6052
94 5 2 18.7523 -11.203 -9.66253
79 5 1 14.6128 -8.87752 -11.8372
80 5 1 15.3568 -7.64805 -11.9224
90 5 2 13.6906 -8.87858 -12.4229
91 5 2 14.8354 -6.71142 -12.0347
81 5 1 16.6222 -7.71075 -11.3383
82 5 1 17.3753 -8.89346 -11.3053
92 5 2 17.1683 -6.76774 -11.3153
93 5 2 18.3667 -8.86122 -10.8535
97 6 3 16.0951 17.3238 -9.57384
110 6 2 15.6264 16.2858 -7.09407
95 6 1 15.0579 17.1185 -7.47704
108 6 2 14.0727 16.7883 -7.87783
109 6 2 14.9122 17.6461 -6.55219
96 6 1 15.9761 17.8202 -8.39943
98 6 3 17.1872 18.2166 -7.83032
99 6 1 18.1592 19.1114 -8.40753
100 6 1 17.5613 20.3466 -8.80707
101 6 1 18.3917 21.34 -9.32342
102 6 1 19.6587 21.4201 -8.80488
103 6 1 20.2794 20.2104 -8.39321
104 6 1 19.4331 19.1957 -7.75662
105 6 1 20.1673 18.0552 -7.23305
106 6 3 19.6155 16.9364 -7.03912
107 6 3 21.4043 18.0362 -6.60334
111 6 2 16.6101 20.4309 -9.24707
114 6 2 21.2911 20.3248 -8.1534
115 6 2 22.0765 17.3036 -6.68241
112 6 2 17.9681 22.2488 -9.67958
113 6 2 20.2093 22.1094 -9.30839
32 3 1 15.3855 -6.32081 6.49957
45 3 2 14.503 -6.39572 5.75384
46 3 2 15.0563 -6.0208 7.48438
33 3 1 16.3902 -5.28918 5.89774
34 3 3 16.4145 -5.26458 4.67134
35 3 3 17.5479 -4.95575 6.68503
36 3 1 18.4452 -3.93818 6.45627
41 3 1 19.8381 -3.9433 6.84619
42 3 1 20.5142 -5.23397 7.09581
43 3 3 20.0341 -6.11224 7.89014
44 3 3 21.8494 -5.15149 7.26601
47 3 2 15.8336 -7.33984 6.62727
52 3 2 22.3119 -4.95855 8.15756
37 3 1 17.9161 -2.64585 6.37324
38 3 1 18.6388 -1.55459 5.93773
39 3 1 20.0367 -1.6437 6.0036
40 3 1 20.6449 -2.93659 6.23127
48 3 2 16.7711 -2.41067 6.33582
49 3 2 18.2403 -0.550735 5.96865
50 3 2 20.673 -0.814697 5.8422
51 3 2 21.7652 -2.80071 6.50365
54 4 1 5.64216 17.7371 9.51185
55 4 3 5.81351 17.6163 8.25278
59 4 1 7.64434 21.842 9.61824
69 4 2 5.75584 20.8423 9.79074
70 4 2 7.20593 22.801 9.41896
11 2 1 -12.3968 -24.364 12.1439
12 2 1 -11.4011 -23.3304 11.7203
13 2 3 -11.1602 -23.2455 10.5178
14 2 3 -10.3301 -22.9158 12.5768
24 2 2 -13.2284 -24.345 11.3979
25 2 2 -12.8041 -24.0525 13.1048
26 2 2 -11.9209 -25.3003 12.2819
20 2 1 -8.04248 -22.0646 12.7941
21 2 1 -7.35827 -23.3837 12.6873
22 2 3 -8.02087 -24.4535 12.5627
23 2 3 -6.1827 -23.6266 13.4301
31 2 2 -6.16651 -24.3869 14.1795
16 2 1 -9.91583 -20.6033 12.2525
27 2 2 -10.9392 -20.5408 11.9202
28 2 2 -9.29647 -18.5885 12.1159
15 2 1 -9.41993 -21.934 12.2841
17 2 1 -9.00624 -19.5938 11.9911
18 2 1 -7.65889 -19.7555 12.4466
19 2 1 -7.19052 -21.0433 12.4073
29 2 2 -6.97956 -18.9665 12.1611
30 2 2 -6.16822 -21.1784 12.6348
1 1 1 18.7209 7.75417 13.7326
2 1 1 20.112 7.76988 13.7875
3 1 1 20.9176 8.64432 14.7283
4 1 3 20.3959 9.64964 15.3128
6 1 2 18.0864 8.48144 14.2216
7 1 2 18.1659 7.10501 13.0187
8 1 2 20.6809 7.0692 13.1499
5 1 4 22.2613 8.43017 15.0941
9 1 2 22.7823 7.7676 14.5023
10 1 2 22.5773 8.61835 16.1114
68 4 2 5.3426 15.7773 10.3718
53 4 1 4.7347 16.6775 10.2002
56 4 3 6.56448 18.3414 10.3479
57 4 1 7.45439 19.4448 10.0653
58 4 1 6.84416 20.7428 10.0092
60 4 1 8.95318 21.8416 10.1047
62 4 1 8.8561 19.3853 10.4865
64 4 3 8.92234 16.9972 10.1345
66 4 2 3.86461 16.5523 9.53813
67 4 2 4.39524 16.9644 11.2295
61 4 1 9.66128 20.6092 10.4258
63 4 1 9.55222 18.0859 10.177
65 4 3 10.7691 17.9107 10.7771
72 4 2 10.6121 20.5646 11.0042
73 4 2 11.4185 17.2767 10.4196
71 4 2 9.54616 22.5867 9.70331
ITEM: TIMESTEP
520
ITEM: NUMBER OF ATOMS
115
ITEM: BOX BOUNDS pp pp pp
-2.8628399999999999e+01 2.8628399999999999e+01
-2.8628399999999999e+01 2.8628399999999999e+01
-2.8628399999999999e+01 2.8628399999999999e+01
ITEM: ATOMS id mol type x y z
74 5 1 12.5272 -12.6777 -11.5151
75 5 1 13.2419 -11.5829 -12.2083
76 5 3 13.2236 -11.6906 -13.4691
77 5 3 14.4715 -11.2486 -11.5794
78 5 1 15.33 -10.1465 -11.7368
87 5 2 11.4555 -12.7424 -11.9045
88 5 2 12.3745 -12.5184 -10.4496
89 5 2 13.1235 -13.5975 -11.6792
83 5 1 16.5986 -10.1881 -11.0603
84 5 1 17.4176 -11.4221 -11.0848
85 5 3 16.9158 -12.6007 -11.0477
86 5 3 18.7057 -11.3692 -10.6173
94 5 2 18.9147 -11.3208 -9.59833
79 5 1 14.722 -8.88182 -11.8051
80 5 1 15.4449 -7.7508 -11.9571
90 5 2 13.8284 -8.80153 -12.3891
91 5 2 14.8362 -6.87782 -11.8121
81 5 1 16.7087 -7.74466 -11.3334
82 5 1 17.4014 -8.99399 -11.3325
92 5 2 17.3495 -6.94702 -11.6012
93 5 2 18.3965 -9.03661 -10.9144
97 6 3 16.028 17.3789 -9.60967
110 6 2 15.4062 16.0194 -7.23511
95 6 1 15.0571 17.1117 -7.51204
108 6 2 14.016 17.0284 -7.91424
109 6 2 14.9962 17.707 -6.57935
96 6 1 15.9996 17.8193 -8.42279
98 6 3 17.1826 18.2158 -7.82769
99 6 1 18.1319 19.1223 -8.37815
100 6 1 17.5941 20.2938 -8.87103
101 6 1 18.4854 21.2336 -9.5135
102 6 1 19.6873 21.3848 -8.85732
103 6 1 20.2608 20.2073 -8.37141
104 6 1 19.4485 19.214 -7.76825
105 6 1 20.229 17.9849 -7.27609
106 6 3 19.5519 16.8942 -7.06927
107 6 3 21.4856 18.062 -6.66357
111 6 2 16.5952 20.3327 -9.43082
114 6 2 21.203 20.4596 -7.8586
115 6 2 22.1711 17.3601 -6.77643
112 6 2 18.0222 22.1871 -9.88695
113 6 2 20.3164 22.1404 -9.29643
32 3 1 15.4772 -6.36959 6.43043
45 3 2 14.5407 -6.38702 5.74275
46 3 2 15.2337 -6.12366 7.46159
33 3 1 16.339 -5.26976 5.93822
34 3 3 16.4517 -5.32073 4.71073
35 3 3 17.5488 -4.99796 6.67359
36 3 1 18.4267 -3.97377 6.29836
41 3 1 19.8281 -4.02301 6.79544
42 3 1 20.5452 -5.32865 7.10578
43 3 3 20.0629 -6.2191 7.84928
44 3 3 21.8182 -5.21418 7.32631
47 3 2 16.0368 -7.32691 6.37451
52 3 2 22.1565 -4.88341 8.20949
37 3 1 17.8311 -2.6694 6.27428
38 3 1 18.6711 -1.57328 6.03155
39 3 1 20.0516 -1.70536 5.98268
40 3 1 20.6247 -2.99286 6.2078
48 3 2 16.7843 -2.38054 6.14654
49 3 2 18.2608 -0.49565 6.05867
50 3 2 20.5778 -0.966511 5.35951
51 3 2 21.5941 -2.91583 6.51974
54 4 1 5.59481 17.7945 9.57625
55 4 3 5.7135 17.7041 8.31824
59 4 1 7.70201 21.7522 9.55384
69 4 2 5.85051 20.8401 9.58028
70 4 2 7.27146 22.7487 9.42965
11 2 1 -12.4211 -24.4172 12.1635
12 2 1 -11.4587 -23.2532 11.8039
13 2 3 -11.0928 -23.2357 10.6264
14 2 3 -10.3241 -22.9214 12.6451
24 2 2 -13.2722 -24.342 11.3552
25 2 2 -12.8513 -24.4502 13.1783
26 2 2 -11.8823 -25.3698 11.9795
20 2 1 -8.05729 -22.039 12.7955
21 2 1 -7.34567 -23.3492 12.747
22 2 3 -8.0167 -24.3891 12.4607
23 2 3 -6.18918 -23.5532 13.4276
31 2 2 -6.27877 -24.0153 14.3384
16 2 1 -9.86776 -20.5722 12.2908
27 2 2 -10.8612 -20.4462 11.9056
28 2 2 -9.43931 -18.5977 12.2602
15 2 1 -9.39339 -21.9311 12.2837
17 2 1 -9.04811 -19.5474 12.0504
18 2 1 -7.69604 -19.691 12.3932
19 2 1 -7.14441 -20.9689 12.4975
29 2 2 -6.98794 -18.8772 12.1697
30 2 2 -6.18025 -21.0548 12.9759
1 1 1 18.796 7.73499 13.6726
2 1 1 20.13 7.78318 13.7901
3 1 1 20.7799 8.61734 14.8114
4 1 3 20.3074 9.70181 15.3176
6 1 2 18.1107 8.16121 14.3784
7 1 2 18.306 7.1555 12.8492
8 1 2 20.7715 7.2747 13.031
5 1 4 22.1362 8.33428 15.1744
9 1 2 22.8123 7.92654 14.4971
10 1 2 22.4703 8.44769 16.1874
68 4 2 5.30533 15.7307 10.1724
53 4 1 4.76631 16.7021 10.2428
56 4 3 6.67928 18.3453 10.3091
57 4 1 7.45228 19.5221 10.1044
58 4 1 6.83002 20.7979 10.0387
60 4 1 9.0337 21.8823 10.1426
62 4 1 8.83654 19.4615 10.4829
64 4 3 8.92166 17.0613 9.99011
66 4 2 3.72817 16.6729 9.81795
67 4 2 4.69836 16.9783 11.3835
61 4 1 9.62112 20.6426 10.3523
63 4 1 9.56015 18.1494 10.1769
65 4 3 10.7627 18.0054 10.83
72 4 2 10.6116 20.5505 10.8351
73 4 2 11.3743 17.1955 10.5369
71 4 2 9.73354 22.6169 9.77541
ITEM: TIMESTEP
540
ITEM: NUMBER OF ATOMS
115
ITEM: BOX BOUNDS pp pp pp
-2.8628399999999999e+01 2.8628399999999999e+01
-2.8628399999999999e+01 2.8628399999999999e+01
-2.8628399999999999e+01 2.8628399999999999e+01
ITEM: ATOMS id mol type x y z
74 5 1 12.6118 -12.6428 -11.5199
75 5 1 13.2859 -11.5268 -12.2064
76 5 3 13.2968 -11.5982 -13.4487
77 5 3 14.4844 -11.244 -11.6127
78 5 1 15.3555 -10.135 -11.6846
87 5 2 11.5526 -12.6314 -11.8719
88 5 2 12.603 -12.539 -10.4377
89 5 2 13.1511 -13.5445 -11.8414
83 5 1 16.6557 -10.1874 -11.0626
84 5 1 17.4322 -11.5005 -11.0437
85 5 3 16.866 -12.6683 -11.0956
86 5 3 18.7262 -11.4746 -10.5037
94 5 2 18.8453 -11.6543 -9.54172
79 5 1 14.6731 -8.84923 -11.7795
80 5 1 15.5561 -7.78732 -12.0068
90 5 2 13.6944 -8.79127 -12.3554
91 5 2 15.1165 -6.80392 -12.1158
81 5 1 16.7687 -7.74399 -11.3003
82 5 1 17.3825 -9.00947 -11.2548
92 5 2 17.435 -6.87626 -11.5258
93 5 2 18.3272 -9.04089 -10.7373
97 6 3 16.0239 17.3867 -9.62979
110 6 2 15.2346 16.0258 -7.31437
95 6 1 14.973 17.0821 -7.54602
108 6 2 14.0224 17.0737 -8.00823
109 6 2 14.8213 17.6814 -6.59741
96 6 1 15.984 17.7735 -8.42875
98 6 3 17.1926 18.1604 -7.81462
99 6 1 18.125 19.1334 -8.33125
100 6 1 17.6383 20.3617 -8.93935
101 6 1 18.5259 21.257 -9.57301
102 6 1 19.7416 21.3681 -8.76482
103 6 1 20.3788 20.1597 -8.30419
104 6 1 19.4433 19.1873 -7.72073
105 6 1 20.2343 17.919 -7.30949
106 6 3 19.6491 16.8173 -6.96469
107 6 3 21.4567 18.0976 -6.68119
111 6 2 16.7591 20.4555 -9.54229
114 6 2 21.2985 20.3718 -7.77496
115 6 2 22.1257 17.3111 -6.62622
112 6 2 18.1198 22.1271 -10.0056
113 6 2 20.4702 22.0677 -9.21748
32 3 1 15.5465 -6.4798 6.50497
45 3 2 14.717 -6.51202 5.82781
46 3 2 15.3093 -6.25457 7.59507
33 3 1 16.4064 -5.38692 5.91684
34 3 3 16.4928 -5.28428 4.66609
35 3 3 17.5283 -5.04382 6.67061
36 3 1 18.3987 -3.94733 6.28866
41 3 1 19.7883 -4.05151 6.71075
42 3 1 20.4865 -5.37858 7.05333
43 3 3 20.0105 -6.29477 7.75035
44 3 3 21.8476 -5.3246 7.44073
47 3 2 16.2009 -7.38705 6.36669
52 3 2 22.1792 -4.81691 8.25487
37 3 1 17.877 -2.67406 6.30822
38 3 1 18.7503 -1.54143 5.95187
39 3 1 20.1574 -1.76725 5.99585
40 3 1 20.7067 -3.04297 6.1965
48 3 2 16.9264 -2.45047 5.85698
49 3 2 18.306 -0.550793 6.044
50 3 2 20.852 -1.10322 5.45551
51 3 2 21.7433 -3.03266 6.51977
54 4 1 5.54771 17.83 9.63509
55 4 3 5.64803 17.703 8.40407
59 4 1 7.70137 21.8704 9.60829
69 4 2 5.93615 20.8432 9.47193
70 4 2 7.26517 22.7926 9.38137
11 2 1 -12.3178 -24.3046 12.2254
12 2 1 -11.3935 -23.2615 11.8412
13 2 3 -11.1167 -23.2856 10.6444
14 2 3 -10.3742 -22.8845 12.7025
24 2 2 -13.0585 -24.2652 11.4227
25 2 2 -12.7504 -24.0867 13.2274
26 2 2 -11.8405 -25.3404 12.228
20 2 1 -8.05537 -21.9769 12.7962
21 2 1 -7.35729 -23.3399 12.6771
22 2 3 -7.98599 -24.3957 12.4546
23 2 3 -6.2113 -23.557 13.4356
31 2 2 -6.25957 -23.9073 14.3134
16 2 1 -9.90916 -20.5839 12.302
27 2 2 -10.857 -20.5072 11.7672
28 2 2 -9.40153 -18.4937 11.899
15 2 1 -9.42047 -21.9033 12.3405
17 2 1 -9.01113 -19.5044 12.0746
18 2 1 -7.69208 -19.5545 12.5601
19 2 1 -7.18002 -20.8731 12.5255
29 2 2 -7.05141 -18.8304 12.0918
30 2 2 -6.16343 -20.9234 12.8179
1 1 1 18.7636 7.62405 13.5737
2 1 1 20.0864 7.90153 13.7367
3 1 1 20.7423 8.67046 14.865
4 1 3 20.1234 9.66453 15.2933
6 1 2 17.975 7.99827 14.1933
7 1 2 18.453 6.95654 12.814
8 1 2 20.7617 7.47536 13.0544
5 1 4 22.1094 8.33234 15.1821
9 1 2 22.7924 8.01538 14.5115
10 1 2 22.3519 8.26357 16.1808
68 4 2 5.42813 15.7259 10.0319
53 4 1 4.8428 16.6511 10.2223
56 4 3 6.64513 18.4234 10.3725
57 4 1 7.47054 19.4793 9.95148
58 4 1 6.87939 20.7779 9.93773
60 4 1 8.94112 21.8451 10.1849
62 4 1 8.76434 19.4186 10.5442
64 4 3 9.06303 17.0943 9.83893
66 4 2 3.84308 16.5488 9.80884
67 4 2 4.77646 16.7863 11.3217
61 4 1 9.5959 20.6205 10.3397
63 4 1 9.57747 18.1512 10.2323
65 4 3 10.8336 17.975 10.8015
72 4 2 10.563 20.6277 10.8627
73 4 2 11.3587 17.2603 10.4002
71 4 2 9.64262 22.633 9.9436
ITEM: TIMESTEP
560
ITEM: NUMBER OF ATOMS
115
ITEM: BOX BOUNDS pp pp pp
-2.8628399999999999e+01 2.8628399999999999e+01
-2.8628399999999999e+01 2.8628399999999999e+01
-2.8628399999999999e+01 2.8628399999999999e+01
ITEM: ATOMS id mol type x y z
74 5 1 12.601 -12.6295 -11.5817
75 5 1 13.2503 -11.4697 -12.2105
76 5 3 13.3801 -11.563 -13.4477
77 5 3 14.417 -11.1782 -11.544
78 5 1 15.3128 -10.1751 -11.8027
87 5 2 11.6365 -12.8128 -12.0462
88 5 2 12.476 -12.4396 -10.4209
89 5 2 13.2945 -13.4901 -11.7637
83 5 1 16.6098 -10.298 -11.1691
84 5 1 17.4717 -11.5607 -11.1366
85 5 3 16.8824 -12.6759 -11.0551
86 5 3 18.6977 -11.462 -10.5046
94 5 2 18.7507 -11.2376 -9.53496
79 5 1 14.8081 -8.86852 -11.8288
80 5 1 15.5389 -7.76872 -12.0061
90 5 2 13.8444 -8.81073 -12.3253
91 5 2 15.0752 -6.81131 -11.9154
81 5 1 16.7501 -7.85024 -11.3879
82 5 1 17.3896 -9.07155 -11.2244
92 5 2 17.3022 -6.94196 -11.3228
93 5 2 18.3039 -8.98969 -10.616
97 6 3 16.0936 17.3917 -9.66118
110 6 2 15.3653 16.0094 -7.56859
95 6 1 14.9703 17.025 -7.59491
108 6 2 14.0037 17.026 -8.058
109 6 2 14.9364 17.5436 -6.55862
96 6 1 15.9693 17.8096 -8.46191
98 6 3 17.172 18.1935 -7.90556
99 6 1 18.0961 19.1148 -8.39576
100 6 1 17.5923 20.3174 -8.82017
101 6 1 18.5721 21.2105 -9.45106
102 6 1 19.7709 21.3638 -8.87922
103 6 1 20.2912 20.2047 -8.31755
104 6 1 19.4422 19.1289 -7.80552
105 6 1 20.24 17.9414 -7.3744
106 6 3 19.6242 16.9147 -6.87886
107 6 3 21.4415 18.1698 -6.66019
111 6 2 16.6137 20.3654 -9.29
114 6 2 21.2478 20.3633 -7.9266
115 6 2 22.1605 17.4402 -6.515
112 6 2 18.2494 22.2016 -9.87791
113 6 2 20.468 22.0204 -9.35064
32 3 1 15.5846 -6.54038 6.48944
45 3 2 14.5897 -6.50331 6.08477
46 3 2 15.5833 -6.43015 7.65046
33 3 1 16.4013 -5.36899 5.92164
34 3 3 16.476 -5.2437 4.68298
35 3 3 17.5197 -5.0573 6.65195
36 3 1 18.4947 -4.02242 6.33614
41 3 1 19.8514 -4.1382 6.7604
42 3 1 20.5407 -5.44955 7.00794
43 3 3 19.8988 -6.27184 7.6845
44 3 3 21.7786 -5.25942 7.56341
47 3 2 16.16 -7.49875 6.15741
52 3 2 21.8754 -4.72308 8.41315
37 3 1 17.9386 -2.66794 6.24325
38 3 1 18.8189 -1.62458 5.86632
39 3 1 20.2144 -1.79947 6.04287
40 3 1 20.6845 -3.12278 6.16305
48 3 2 16.854 -2.41415 6.09249
49 3 2 18.3813 -0.691028 6.10707
50 3 2 20.8956 -1.08329 5.65203
51 3 2 21.7822 -3.20243 6.14689
54 4 1 5.4591 17.9025 9.70289
55 4 3 5.61729 17.797 8.45379
59 4 1 7.73577 21.8599 9.58889
69 4 2 5.92717 20.8028 9.34079
70 4 2 7.22667 22.8405 9.69862
11 2 1 -12.263 -24.2915 12.3685
12 2 1 -11.331 -23.282 11.7916
13 2 3 -11.0411 -23.3287 10.5404
14 2 3 -10.3224 -22.8399 12.7064
24 2 2 -13.1832 -24.4488 11.7902
25 2 2 -12.5341 -23.8782 13.3923
26 2 2 -11.6846 -25.2077 12.5497
20 2 1 -7.99584 -21.9992 12.8264
21 2 1 -7.30737 -23.3163 12.6411
22 2 3 -8.04553 -24.3049 12.5509
23 2 3 -6.19835 -23.5376 13.4995
31 2 2 -6.36606 -23.4678 14.482
16 2 1 -9.93309 -20.5043 12.3269
27 2 2 -10.9589 -20.3227 11.9813
28 2 2 -9.43643 -18.4166 12.0521
15 2 1 -9.41149 -21.8551 12.3391
17 2 1 -9.0199 -19.4581 11.9694
18 2 1 -7.79921 -19.5655 12.5855
19 2 1 -7.1859 -20.8841 12.5434
29 2 2 -7.20916 -18.6425 12.5958
30 2 2 -6.1781 -20.8986 12.9476
1 1 1 18.7779 7.52179 13.5821
2 1 1 20.0756 7.82917 13.6988
3 1 1 20.6651 8.68986 14.7828
4 1 3 20.044 9.61365 15.3308
6 1 2 18.0742 7.76666 14.3528
7 1 2 18.4591 7.03649 12.716
8 1 2 20.7222 7.5814 12.9124
5 1 4 22.0342 8.45913 15.1896
9 1 2 22.8717 8.21769 14.5221
10 1 2 22.3043 8.83833 16.1172
68 4 2 5.72108 15.8499 10.2908
53 4 1 4.9379 16.6352 10.3623
56 4 3 6.59494 18.4387 10.3373
57 4 1 7.42124 19.4958 9.91672
58 4 1 6.83672 20.7529 9.80982
60 4 1 8.97069 21.8351 10.3024
62 4 1 8.76452 19.3583 10.4675
64 4 3 9.10019 17.0519 9.72836
66 4 2 4.02216 16.344 9.85959
67 4 2 4.74049 16.7824 11.422
61 4 1 9.61771 20.5809 10.4644
63 4 1 9.61055 18.0686 10.2937
65 4 3 10.9005 17.9646 10.9092
72 4 2 10.5992 20.5341 10.9022
73 4 2 11.7572 17.6183 10.3973
71 4 2 9.61424 22.6964 10.2737
ITEM: TIMESTEP
580
ITEM: NUMBER OF ATOMS
115
ITEM: BOX BOUNDS pp pp pp
-2.8628399999999999e+01 2.8628399999999999e+01
-2.8628399999999999e+01 2.8628399999999999e+01
-2.8628399999999999e+01 2.8628399999999999e+01
ITEM: ATOMS id mol type x y z
74 5 1 12.6393 -12.6307 -11.5828
75 5 1 13.2643 -11.4767 -12.246
76 5 3 13.4074 -11.5019 -13.488
77 5 3 14.3871 -11.0646 -11.5284
78 5 1 15.3631 -10.1605 -11.9635
87 5 2 11.6326 -12.9468 -12.035
88 5 2 12.465 -12.3545 -10.584
89 5 2 13.2644 -13.5581 -11.6649
83 5 1 16.6163 -10.3141 -11.2376
84 5 1 17.4395 -11.5853 -11.1846
85 5 3 16.9358 -12.7188 -11.0527
86 5 3 18.7158 -11.4597 -10.5714
94 5 2 18.9091 -11.2331 -9.63118
79 5 1 14.7507 -8.91174 -11.8749
80 5 1 15.5414 -7.78189 -11.967
90 5 2 13.7496 -8.8752 -12.3401
91 5 2 15.1691 -6.74689 -12.0045
81 5 1 16.8167 -7.8576 -11.3188
82 5 1 17.4493 -9.1226 -11.2485
92 5 2 17.4047 -6.96152 -11.5549
93 5 2 18.2877 -9.079 -10.5634
97 6 3 16.0713 17.351 -9.70476
110 6 2 15.4099 15.9913 -7.53335
95 6 1 15.0257 17.0448 -7.67376
108 6 2 14.041 17.1189 -8.2107
109 6 2 14.96 17.575 -6.71319
96 6 1 15.9771 17.8031 -8.543
98 6 3 17.1736 18.1876 -7.91153
99 6 1 18.1753 19.112 -8.45691
100 6 1 17.6382 20.3578 -8.87562
101 6 1 18.4376 21.3277 -9.50564
102 6 1 19.7085 21.3124 -8.91456
103 6 1 20.3274 20.1712 -8.39355
104 6 1 19.4755 19.2301 -7.75265
105 6 1 20.2357 18.0048 -7.35589
106 6 3 19.5827 17.0127 -6.85741
107 6 3 21.372 18.1895 -6.67133
111 6 2 16.6496 20.3274 -9.37361
114 6 2 21.3651 20.283 -8.01986
115 6 2 21.9748 17.4841 -6.44655
112 6 2 17.9984 22.2806 -9.67461
113 6 2 20.4055 22.0271 -9.34683
32 3 1 15.655 -6.55571 6.51818
45 3 2 14.6687 -6.56463 6.0088
46 3 2 15.5419 -6.41121 7.62598
33 3 1 16.3972 -5.31309 6.01932
34 3 3 16.369 -5.20145 4.7737
35 3 3 17.6058 -5.01025 6.67372
36 3 1 18.4738 -4.03426 6.30277
41 3 1 19.7877 -4.08832 6.73792
42 3 1 20.6002 -5.35883 7.06027
43 3 3 19.9203 -6.2634 7.63049
44 3 3 21.853 -5.21935 7.58443
47 3 2 16.1458 -7.49282 6.28786
52 3 2 21.9962 -4.92604 8.55177
37 3 1 17.8836 -2.69406 6.28695
38 3 1 18.7724 -1.69728 5.83156
39 3 1 20.1203 -1.79247 6.15702
40 3 1 20.5976 -3.13319 6.02128
48 3 2 16.8966 -2.58819 5.91342
49 3 2 18.3053 -0.732389 5.60526
50 3 2 20.7473 -1.05118 5.72544
51 3 2 21.6332 -3.26466 6.01566
54 4 1 5.57303 17.9057 9.73147
55 4 3 5.57839 17.7986 8.44305
59 4 1 7.77224 21.8145 9.64149
69 4 2 6.02069 20.8424 9.11557
70 4 2 7.27846 22.7681 9.40474
11 2 1 -12.2642 -24.3127 12.4136
12 2 1 -11.237 -23.3535 11.8323
13 2 3 -10.9556 -23.4924 10.5759
14 2 3 -10.3043 -22.8038 12.6536
24 2 2 -13.1345 -24.4353 11.6823
25 2 2 -12.6281 -23.912 13.3619
26 2 2 -11.7749 -25.281 12.4938
20 2 1 -7.9707 -21.9884 12.7865
21 2 1 -7.39628 -23.3911 12.8157
22 2 3 -8.07343 -24.3983 12.5391
23 2 3 -6.15385 -23.5519 13.5805
31 2 2 -6.19762 -23.2995 14.5667
16 2 1 -9.92401 -20.4726 12.3511
27 2 2 -10.9334 -20.3457 12.0766
28 2 2 -9.53633 -18.5836 12.0155
15 2 1 -9.36513 -21.7607 12.391
17 2 1 -9.06597 -19.4895 12.0338
18 2 1 -7.7904 -19.5603 12.5756
19 2 1 -7.16825 -20.866 12.578
29 2 2 -7.19142 -18.717 12.484
30 2 2 -6.18508 -20.9053 13.0197
1 1 1 18.8085 7.40424 13.669
2 1 1 20.0113 7.84943 13.644
3 1 1 20.5777 8.57116 14.8342
4 1 3 20.0571 9.61776 15.2509
6 1 2 18.1186 7.65466 14.4981
7 1 2 18.378 6.80906 12.8351
8 1 2 20.6012 7.66706 12.734
5 1 4 21.968 8.47489 15.1269
9 1 2 22.6999 8.29435 14.399
10 1 2 22.255 9.10981 15.9661
68 4 2 5.82398 15.9789 10.5088
53 4 1 5.04409 16.7588 10.4808
56 4 3 6.65845 18.4521 10.3874
57 4 1 7.49674 19.4776 9.93334
58 4 1 6.95829 20.778 9.76555
60 4 1 8.89474 21.7949 10.4135
62 4 1 8.84143 19.3934 10.4021
64 4 3 9.13487 17.0697 9.75789
66 4 2 4.08369 16.3746 9.98539
67 4 2 4.85507 17.0276 11.536
61 4 1 9.58513 20.5747 10.4141
63 4 1 9.56426 18.1031 10.3009
65 4 3 10.8368 17.9704 10.8965
72 4 2 10.5612 20.558 10.8873
73 4 2 11.6899 17.783 10.3799
71 4 2 9.53891 22.6693 10.2859
ITEM: TIMESTEP
600
ITEM: NUMBER OF ATOMS
115
ITEM: BOX BOUNDS pp pp pp
-2.8628399999999999e+01 2.8628399999999999e+01
-2.8628399999999999e+01 2.8628399999999999e+01
-2.8628399999999999e+01 2.8628399999999999e+01
ITEM: ATOMS id mol type x y z
74 5 1 12.7147 -12.7384 -11.6145
75 5 1 13.2434 -11.567 -12.2788
76 5 3 13.3702 -11.5782 -13.5037
77 5 3 14.3776 -11.0967 -11.5498
78 5 1 15.3357 -10.1171 -11.8837
87 5 2 11.7023 -12.9899 -12.0994
88 5 2 12.4848 -12.586 -10.5521
89 5 2 13.4257 -13.6071 -11.716
83 5 1 16.6811 -10.3169 -11.2239
84 5 1 17.4243 -11.6234 -11.2756
85 5 3 16.9068 -12.7235 -11.2403
86 5 3 18.6872 -11.6066 -10.6778
94 5 2 18.9539 -11.4349 -9.69406
79 5 1 14.7615 -8.83578 -11.8987
80 5 1 15.6831 -7.77593 -11.9085
90 5 2 13.8474 -8.74627 -12.4984
91 5 2 15.228 -6.8209 -11.7969
81 5 1 16.8803 -7.84757 -11.2297
82 5 1 17.5149 -9.08941 -11.3068
92 5 2 17.43 -6.93001 -11.2019
93 5 2 18.4499 -9.08519 -10.9183
97 6 3 16.0579 17.3776 -9.64942
110 6 2 15.5515 16.0846 -7.60895
95 6 1 15.0665 17.1029 -7.63816
108 6 2 14.0393 17.1472 -8.21254
109 6 2 14.9985 17.5317 -6.63979
96 6 1 15.9997 17.8675 -8.49428
98 6 3 17.2315 18.267 -7.88332
99 6 1 18.1495 19.1445 -8.43454
100 6 1 17.6 20.3445 -8.92106
101 6 1 18.4907 21.2853 -9.44346
102 6 1 19.8394 21.336 -8.9827
103 6 1 20.3622 20.1183 -8.53153
104 6 1 19.4979 19.2473 -7.82139
105 6 1 20.1645 17.996 -7.33014
106 6 3 19.4466 17.0261 -6.91029
107 6 3 21.389 18.1125 -6.72921
111 6 2 16.642 20.3814 -9.3476
114 6 2 21.3524 20.1855 -8.13319
115 6 2 21.8259 17.4332 -6.14512
112 6 2 18.0474 22.2028 -9.66612
113 6 2 20.4589 22.0476 -9.51419
32 3 1 15.7349 -6.4429 6.62625
45 3 2 14.6912 -6.53831 6.22173
46 3 2 15.6288 -6.25771 7.74915
33 3 1 16.3969 -5.2996 6.0177
34 3 3 16.3467 -5.2153 4.73488
35 3 3 17.5613 -5.09026 6.67568
36 3 1 18.4606 -4.0691 6.29784
41 3 1 19.8383 -4.06032 6.67632
42 3 1 20.602 -5.30962 7.13736
43 3 3 19.9416 -6.23186 7.62001
44 3 3 21.929 -5.21575 7.63675
47 3 2 16.346 -7.31602 6.49521
52 3 2 22.1058 -4.71192 8.56427
37 3 1 17.881 -2.72666 6.28345
38 3 1 18.6465 -1.70753 5.81868
39 3 1 20.0137 -1.82834 6.09236
40 3 1 20.6439 -3.07402 6.09728
48 3 2 16.8387 -2.61721 6.01623
49 3 2 18.2638 -0.706668 5.99103
50 3 2 20.6165 -1.01207 5.70225
51 3 2 21.6961 -3.09462 6.36447
54 4 1 5.64704 17.9424 9.71226
55 4 3 5.65896 17.8226 8.45119
59 4 1 7.77188 21.8394 9.63231
69 4 2 5.93824 20.7492 9.24999
70 4 2 7.30773 22.7783 9.52331
11 2 1 -12.2191 -24.3574 12.3328
12 2 1 -11.2756 -23.3219 11.792
13 2 3 -10.8903 -23.582 10.6321
14 2 3 -10.2811 -22.8657 12.668
24 2 2 -13.0215 -24.6877 11.6397
25 2 2 -12.6515 -24.0031 13.3537
26 2 2 -11.6921 -25.285 12.5633
20 2 1 -8.04949 -21.9466 12.8339
21 2 1 -7.43448 -23.3245 12.8928
22 2 3 -7.98049 -24.3992 12.6144
23 2 3 -6.30103 -23.5503 13.5409
31 2 2 -6.26503 -23.3505 14.4973
16 2 1 -9.97162 -20.5304 12.4272
27 2 2 -10.9751 -20.3856 11.9957
28 2 2 -9.5923 -18.4842 12.0107
15 2 1 -9.41924 -21.7749 12.3706
17 2 1 -9.05136 -19.4503 12.0797
18 2 1 -7.72566 -19.5893 12.6084
19 2 1 -7.16566 -20.8201 12.6174
29 2 2 -7.00597 -18.8526 12.2189
30 2 2 -6.1858 -20.8454 13.021
1 1 1 18.7818 7.28011 13.7914
2 1 1 19.943 7.86783 13.6876
3 1 1 20.6065 8.59936 14.7808
4 1 3 20.0021 9.61596 15.1691
6 1 2 18.214 7.24837 14.7098
7 1 2 18.3644 6.72471 12.8783
8 1 2 20.4783 7.7262 12.7672
5 1 4 21.9474 8.48164 15.0572
9 1 2 22.6611 8.37249 14.2865
10 1 2 22.2726 8.70517 15.9884
68 4 2 5.79874 15.9588 10.4002
53 4 1 5.06971 16.7397 10.4868
56 4 3 6.6934 18.4767 10.3738
57 4 1 7.53708 19.4776 9.98927
58 4 1 6.90639 20.7271 9.73751
60 4 1 8.91006 21.8276 10.4456
62 4 1 8.9074 19.4226 10.4993
64 4 3 9.10604 17.0586 9.85578
66 4 2 4.09374 16.3102 10.1328
67 4 2 4.98241 16.9701 11.5169
61 4 1 9.63444 20.621 10.4628
63 4 1 9.62692 18.1219 10.2352
65 4 3 10.7852 17.9837 10.9645
72 4 2 10.4644 20.6927 11.1228
73 4 2 11.4963 17.4029 10.5105
71 4 2 9.4884 22.7013 10.4572
ITEM: TIMESTEP
620
ITEM: NUMBER OF ATOMS
115
ITEM: BOX BOUNDS pp pp pp
-2.8628399999999999e+01 2.8628399999999999e+01
-2.8628399999999999e+01 2.8628399999999999e+01
-2.8628399999999999e+01 2.8628399999999999e+01
ITEM: ATOMS id mol type x y z
74 5 1 12.748 -12.8784 -11.6254
75 5 1 13.2886 -11.5921 -12.2665
76 5 3 13.3598 -11.5388 -13.5325
77 5 3 14.3953 -11.1764 -11.5382
78 5 1 15.2934 -10.1201 -11.8187
87 5 2 11.8602 -13.0518 -12.1755
88 5 2 12.3805 -12.8543 -10.5595
89 5 2 13.5278 -13.6939 -11.7597
83 5 1 16.6783 -10.2626 -11.2371
84 5 1 17.443 -11.5809 -11.2503
85 5 3 16.8779 -12.6661 -11.3767
86 5 3 18.7049 -11.7282 -10.6525
94 5 2 18.8307 -11.4593 -9.72426
79 5 1 14.8293 -8.7642 -11.9192
80 5 1 15.6342 -7.64188 -11.7835
90 5 2 13.847 -8.62501 -12.3564
91 5 2 15.1587 -6.67365 -11.7206
81 5 1 16.871 -7.91254 -11.1764
82 5 1 17.4818 -9.15307 -11.4072
92 5 2 17.5148 -7.13122 -11.1613
93 5 2 18.4959 -9.16655 -11.0168
97 6 3 16.0611 17.4398 -9.59932
110 6 2 15.4809 16.2814 -7.24737
95 6 1 14.9969 17.1975 -7.55448
108 6 2 13.9362 17.1 -8.05442
109 6 2 14.836 17.8035 -6.64894
96 6 1 15.9778 17.8754 -8.42502
98 6 3 17.1852 18.3787 -7.85286
99 6 1 18.168 19.1629 -8.44284
100 6 1 17.703 20.4602 -8.83593
101 6 1 18.556 21.311 -9.48089
102 6 1 19.8904 21.301 -9.04049
103 6 1 20.4159 20.0149 -8.60119
104 6 1 19.5178 19.2199 -7.86213
105 6 1 20.1527 17.9566 -7.34822
106 6 3 19.4293 17.0335 -6.83923
107 6 3 21.4176 18.0821 -6.73103
111 6 2 16.7306 20.4868 -9.16934
114 6 2 21.4169 20.1033 -8.27183
115 6 2 21.8408 17.1965 -6.35048
112 6 2 18.1569 22.305 -9.77328
113 6 2 20.5601 21.9347 -9.60991
32 3 1 15.6022 -6.43319 6.69535
45 3 2 14.5458 -6.64296 6.23029
46 3 2 15.6005 -6.41551 7.86874
33 3 1 16.31 -5.33671 6.02709
34 3 3 16.3404 -5.27712 4.72993
35 3 3 17.557 -5.00849 6.65577
36 3 1 18.4615 -4.03319 6.31108
41 3 1 19.8603 -4.12187 6.80787
42 3 1 20.6433 -5.36237 7.06023
43 3 3 19.9769 -6.21918 7.62802
44 3 3 21.949 -5.18416 7.68914
47 3 2 16.289 -7.26174 6.44987
52 3 2 22.0267 -4.68526 8.55585
37 3 1 17.859 -2.76764 6.3025
38 3 1 18.6003 -1.74185 5.82348
39 3 1 20.009 -1.73683 6.0114
40 3 1 20.5861 -3.01401 6.15335
48 3 2 16.8596 -2.73492 5.98402
49 3 2 18.1221 -0.738732 5.78757
50 3 2 20.5667 -0.946416 5.61005
51 3 2 21.6308 -2.93035 6.50337
54 4 1 5.60082 17.9263 9.73844
55 4 3 5.71656 17.8125 8.50121
59 4 1 7.82006 21.9077 9.63012
69 4 2 6.11208 20.8158 9.23739
70 4 2 7.35957 22.8513 9.44216
11 2 1 -12.2421 -24.295 12.4292
12 2 1 -11.3227 -23.3345 11.799
13 2 3 -10.8506 -23.5922 10.6684
14 2 3 -10.338 -22.844 12.6687
24 2 2 -12.8366 -24.8113 11.695
25 2 2 -12.873 -23.7457 13.1576
26 2 2 -11.6409 -25.0297 13.0699
20 2 1 -8.06118 -22.0391 12.8703
21 2 1 -7.41859 -23.3621 12.8375
22 2 3 -8.07665 -24.4238 12.6646
23 2 3 -6.24944 -23.5538 13.5843
31 2 2 -6.2646 -23.5692 14.6042
16 2 1 -9.96161 -20.5292 12.332
27 2 2 -10.9425 -20.3196 11.8314
28 2 2 -9.51576 -18.494 12.3397
15 2 1 -9.43543 -21.805 12.3606
17 2 1 -9.05933 -19.4587 12.1582
18 2 1 -7.79413 -19.6192 12.6309
19 2 1 -7.22579 -20.9236 12.6515
29 2 2 -7.18711 -18.8362 12.3546
30 2 2 -6.24052 -20.9234 13.0404
1 1 1 18.7771 7.22155 13.7841
2 1 1 19.939 7.88689 13.6312
3 1 1 20.5644 8.63787 14.7563
4 1 3 19.9242 9.66102 15.2009
6 1 2 18.3675 7.06571 14.7094
7 1 2 18.2804 6.90912 12.9489
8 1 2 20.4265 7.99269 12.69
5 1 4 21.9655 8.43985 15.0386
9 1 2 22.6987 8.71629 14.2892
10 1 2 22.259 8.53976 16.0887
68 4 2 5.89865 15.8937 10.1724
53 4 1 5.16542 16.6795 10.4353
56 4 3 6.74194 18.4642 10.3506
57 4 1 7.57136 19.4817 9.93109
58 4 1 6.98176 20.7657 9.77393
60 4 1 8.91019 21.8555 10.4096
62 4 1 8.81974 19.3761 10.5836
64 4 3 9.07489 17.0845 9.8898
66 4 2 4.24821 16.4159 9.98469
67 4 2 5.1053 16.7126 11.5098
61 4 1 9.52623 20.6078 10.5766
63 4 1 9.69563 18.177 10.1889
65 4 3 10.8453 17.9635 11.0131
72 4 2 10.4361 20.6851 11.1213
73 4 2 11.472 17.275 10.735
71 4 2 9.54687 22.7051 10.3685
ITEM: TIMESTEP
640
ITEM: NUMBER OF ATOMS
115
ITEM: BOX BOUNDS pp pp pp
-2.8628399999999999e+01 2.8628399999999999e+01
-2.8628399999999999e+01 2.8628399999999999e+01
-2.8628399999999999e+01 2.8628399999999999e+01
ITEM: ATOMS id mol type x y z
74 5 1 12.7812 -12.9685 -11.6936
75 5 1 13.2928 -11.6106 -12.2241
76 5 3 13.2935 -11.5971 -13.4647
77 5 3 14.4938 -11.1564 -11.6173
78 5 1 15.3524 -10.1248 -11.842
87 5 2 11.7972 -13.1944 -12.1568
88 5 2 12.5378 -12.8824 -10.5601
89 5 2 13.5195 -13.7387 -11.9502
83 5 1 16.6602 -10.2855 -11.1912
84 5 1 17.44 -11.5839 -11.2284
85 5 3 16.8364 -12.7212 -11.4457
86 5 3 18.6763 -11.6943 -10.5383
94 5 2 18.7378 -12.0828 -9.62434
79 5 1 14.7584 -8.78689 -11.7954
80 5 1 15.6824 -7.65024 -11.8248
90 5 2 13.8646 -8.67567 -12.3421
91 5 2 15.2215 -6.58972 -11.7555
81 5 1 16.955 -7.85587 -11.1961
82 5 1 17.5041 -9.13308 -11.4035
92 5 2 17.6164 -6.98303 -11.2026
93 5 2 18.5378 -9.20848 -11.0655
97 6 3 16.0907 17.3975 -9.61486
110 6 2 15.6828 16.2816 -7.08927
95 6 1 15.1193 17.2385 -7.50456
108 6 2 14.2025 16.9606 -8.00498
109 6 2 14.8389 17.8454 -6.60352
96 6 1 15.9859 17.9786 -8.46148
98 6 3 17.1346 18.4339 -7.84987
99 6 1 18.1041 19.1622 -8.52347
100 6 1 17.7134 20.5473 -8.80187
101 6 1 18.6504 21.3911 -9.50334
102 6 1 19.9577 21.2975 -9.04535
103 6 1 20.4304 19.9837 -8.61435
104 6 1 19.4719 19.1215 -7.94361
105 6 1 20.1147 17.9333 -7.34679
106 6 3 19.4611 17.0244 -6.80544
107 6 3 21.3993 18.0382 -6.74029
111 6 2 16.5756 20.7296 -8.97341
114 6 2 21.4817 20.0451 -8.36518
115 6 2 21.9157 17.1828 -6.70935
112 6 2 18.3444 22.3883 -9.74177
113 6 2 20.7164 21.9715 -9.48522
32 3 1 15.5708 -6.45081 6.70603
45 3 2 14.6293 -6.62291 6.26023
46 3 2 15.5256 -6.24237 7.82297
33 3 1 16.3266 -5.30107 6.08319
34 3 3 16.2811 -5.3572 4.83332
35 3 3 17.5044 -5.0692 6.69779
36 3 1 18.3925 -4.03031 6.35955
41 3 1 19.8012 -4.00724 6.81354
42 3 1 20.6024 -5.22314 7.17115
43 3 3 20.0157 -6.23682 7.59896
44 3 3 21.921 -5.1364 7.65163
47 3 2 16.0788 -7.46623 6.71224
52 3 2 22.0535 -4.97449 8.6499
37 3 1 17.8341 -2.72353 6.35949
38 3 1 18.5977 -1.68335 5.8087
39 3 1 19.9903 -1.68412 5.97927
40 3 1 20.5908 -2.92066 6.24607
48 3 2 16.754 -2.67358 6.22016
49 3 2 18.1254 -0.735257 5.79636
50 3 2 20.5022 -0.96505 5.32551
51 3 2 21.6724 -2.87574 6.38917
54 4 1 5.6254 17.8647 9.73799
55 4 3 5.69155 17.8356 8.482
59 4 1 7.83756 21.866 9.54178
69 4 2 5.95485 20.874 9.36281
70 4 2 7.32527 22.7704 9.23071
11 2 1 -12.272 -24.2796 12.4631
12 2 1 -11.3217 -23.3638 11.7914
13 2 3 -10.8998 -23.6609 10.635
14 2 3 -10.387 -22.7788 12.7336
24 2 2 -13.0006 -24.6428 11.6778
25 2 2 -12.7512 -23.7394 13.35
26 2 2 -11.6382 -25.1359 12.7999
20 2 1 -8.1431 -22.0384 12.8744
21 2 1 -7.4968 -23.4285 12.8807
22 2 3 -8.12729 -24.5426 12.7569
23 2 3 -6.26502 -23.558 13.5965
31 2 2 -6.13037 -23.729 14.6609
16 2 1 -9.9233 -20.5182 12.2786
27 2 2 -10.8557 -20.2922 11.8824
28 2 2 -9.43513 -18.4598 11.9653
15 2 1 -9.44069 -21.8422 12.2995
17 2 1 -9.03566 -19.4602 12.1003
18 2 1 -7.79515 -19.6855 12.6862
19 2 1 -7.2755 -20.984 12.5868
29 2 2 -7.06838 -18.8609 12.7585
30 2 2 -6.26114 -21.1038 12.9659
1 1 1 18.7992 7.27919 13.7388
2 1 1 19.9759 7.89353 13.6173
3 1 1 20.5307 8.5716 14.7585
4 1 3 20.024 9.63324 15.2321
6 1 2 18.2082 7.29978 14.6941
7 1 2 18.3279 6.77176 12.8647
8 1 2 20.4999 7.99277 12.6195
5 1 4 21.9265 8.54034 15.0092
9 1 2 22.5188 9.04163 14.3925
10 1 2 22.4299 8.30924 15.9538
68 4 2 5.80267 15.6974 10.0061
53 4 1 5.18854 16.6573 10.3615
56 4 3 6.75361 18.4502 10.3928
57 4 1 7.52496 19.5455 9.99682
58 4 1 6.96291 20.8157 9.79487
60 4 1 8.92498 21.9165 10.3935
62 4 1 8.88377 19.4254 10.49
64 4 3 9.06195 17.0686 9.95452
66 4 2 4.11282 16.5319 10.1014
67 4 2 5.30129 16.6882 11.5178
61 4 1 9.60824 20.6522 10.5869
63 4 1 9.69038 18.1096 10.2934
65 4 3 10.8339 17.9912 11.0259
72 4 2 10.3569 20.7387 11.3513
73 4 2 11.5008 17.2698 10.8595
71 4 2 9.45521 22.8454 10.3332
ITEM: TIMESTEP
660
ITEM: NUMBER OF ATOMS
115
ITEM: BOX BOUNDS pp pp pp
-2.8628399999999999e+01 2.8628399999999999e+01
-2.8628399999999999e+01 2.8628399999999999e+01
-2.8628399999999999e+01 2.8628399999999999e+01
ITEM: ATOMS id mol type x y z
74 5 1 12.8499 -12.9636 -11.6506
75 5 1 13.2917 -11.6591 -12.2047
76 5 3 13.2316 -11.6841 -13.45
77 5 3 14.473 -11.233 -11.5782
78 5 1 15.3468 -10.1089 -11.7431
87 5 2 11.7802 -13.3126 -12.0239
88 5 2 12.9144 -12.7842 -10.5425
89 5 2 13.5956 -13.7208 -11.9593
83 5 1 16.722 -10.2506 -11.1562
84 5 1 17.42 -11.555 -11.245
85 5 3 16.8339 -12.6704 -11.4641
86 5 3 18.6089 -11.6727 -10.5759
94 5 2 18.7012 -12.1096 -9.678
79 5 1 14.8167 -8.74241 -11.7615
80 5 1 15.6913 -7.65468 -11.8353
90 5 2 13.7914 -8.56939 -12.094
91 5 2 15.3069 -6.73522 -11.6899
81 5 1 16.9136 -7.83358 -11.2138
82 5 1 17.5116 -9.11721 -11.3506
92 5 2 17.5556 -6.94728 -11.22
93 5 2 18.56 -9.1677 -11.1421
97 6 3 16.182 17.3479 -9.60212
110 6 2 15.6497 16.2757 -7.16955
95 6 1 15.1574 17.1822 -7.557
108 6 2 14.2481 16.9895 -8.07612
109 6 2 15.0067 17.7943 -6.75662
96 6 1 16.0158 17.8992 -8.49557
98 6 3 17.2047 18.3726 -7.95869
99 6 1 18.1688 19.2485 -8.55138
100 6 1 17.7134 20.5383 -8.88648
101 6 1 18.7098 21.4053 -9.38785
102 6 1 20.0085 21.2988 -9.04914
103 6 1 20.4187 20.0605 -8.56207
104 6 1 19.5034 19.2091 -7.93832
105 6 1 20.1006 17.9379 -7.35549
106 6 3 19.4676 16.9887 -6.82379
107 6 3 21.3855 18.0335 -6.73155
111 6 2 16.6865 20.6276 -9.20601
114 6 2 21.4864 19.9621 -8.53207
115 6 2 21.9132 17.2544 -6.6177
112 6 2 18.4032 22.4101 -9.55705
113 6 2 20.7463 21.8351 -9.6939
32 3 1 15.5126 -6.46588 6.78293
45 3 2 14.4401 -6.59408 6.38951
46 3 2 15.6114 -6.31039 7.8571
33 3 1 16.2592 -5.39642 6.08857
34 3 3 16.2221 -5.43458 4.84086
35 3 3 17.5112 -5.07111 6.62287
36 3 1 18.3525 -3.98069 6.35645
41 3 1 19.75 -3.99292 6.8766
42 3 1 20.5694 -5.23232 7.15563
43 3 3 20.0347 -6.26821 7.61019
44 3 3 21.9147 -5.14419 7.56833
47 3 2 15.9644 -7.43864 6.65043
52 3 2 22.1832 -4.96292 8.52703
37 3 1 17.7836 -2.72222 6.4377
38 3 1 18.495 -1.60703 5.82079
39 3 1 19.9194 -1.72049 6.01671
40 3 1 20.5048 -2.95815 6.32446
48 3 2 16.6834 -2.67848 6.45767
49 3 2 18.0525 -0.637934 5.89553
50 3 2 20.5579 -0.865157 5.65666
51 3 2 21.4513 -2.88583 6.66244
54 4 1 5.70411 17.8253 9.75977
55 4 3 5.695 17.8904 8.49607
59 4 1 7.86773 21.8459 9.49692
69 4 2 5.98321 20.8964 9.27234
70 4 2 7.37388 22.7338 9.31467
11 2 1 -12.3558 -24.2411 12.3705
12 2 1 -11.2553 -23.3819 11.8176
13 2 3 -10.8919 -23.7532 10.6803
14 2 3 -10.3403 -22.8298 12.6216
24 2 2 -13.2211 -24.2322 11.6251
25 2 2 -12.623 -23.7512 13.2895
26 2 2 -11.9392 -25.1847 12.5158
20 2 1 -8.18535 -22.0966 12.8769
21 2 1 -7.51262 -23.4769 12.9316
22 2 3 -8.18174 -24.5314 12.8533
23 2 3 -6.30998 -23.5493 13.5255
31 2 2 -6.2932 -23.6805 14.5093
16 2 1 -9.97141 -20.5054 12.3575
27 2 2 -10.8964 -20.3646 11.8894
28 2 2 -9.47293 -18.5167 11.9211
15 2 1 -9.4794 -21.8305 12.3116
17 2 1 -9.05 -19.5174 11.9841
18 2 1 -7.80409 -19.6609 12.7028
19 2 1 -7.27505 -20.9793 12.5938
29 2 2 -7.11993 -18.8679 12.5948
30 2 2 -6.23874 -21.0898 12.9956
1 1 1 18.7711 7.29814 13.7218
2 1 1 19.9823 7.88129 13.6755
3 1 1 20.6052 8.55461 14.8199
4 1 3 19.9905 9.60313 15.2405
6 1 2 18.1636 7.28736 14.6545
7 1 2 18.2893 6.90058 12.8871
8 1 2 20.4661 7.89581 12.7324
5 1 4 22.0055 8.5962 14.9938
9 1 2 22.5163 9.39927 14.5859
10 1 2 22.4826 8.09281 15.737
68 4 2 5.81725 15.7001 10.1894
53 4 1 5.20792 16.5803 10.3951
56 4 3 6.75271 18.4461 10.4183
57 4 1 7.52517 19.5826 9.99779
58 4 1 6.91317 20.8615 9.79821
60 4 1 8.99578 21.8901 10.3133
62 4 1 8.90838 19.4799 10.4969
64 4 3 9.1528 17.0485 10.0297
66 4 2 4.15954 16.2892 10.0794
67 4 2 5.17745 16.6025 11.4833
61 4 1 9.66074 20.6957 10.5749
63 4 1 9.7118 18.1161 10.3936
65 4 3 10.8344 17.9164 11.163
72 4 2 10.6034 20.7817 11.1632
73 4 2 11.6386 17.44 10.7259
71 4 2 9.70601 22.7248 10.0457
ITEM: TIMESTEP
680
ITEM: NUMBER OF ATOMS
115
ITEM: BOX BOUNDS pp pp pp
-2.8628399999999999e+01 2.8628399999999999e+01
-2.8628399999999999e+01 2.8628399999999999e+01
-2.8628399999999999e+01 2.8628399999999999e+01
ITEM: ATOMS id mol type x y z
74 5 1 12.8123 -13.0006 -11.6419
75 5 1 13.3045 -11.6467 -12.2257
76 5 3 13.2949 -11.6102 -13.4863
77 5 3 14.4204 -11.2421 -11.6363
78 5 1 15.3067 -10.0967 -11.7838
87 5 2 11.8423 -13.2561 -12.0371
88 5 2 12.7194 -12.8122 -10.5734
89 5 2 13.543 -13.8315 -11.886
83 5 1 16.5936 -10.2463 -11.1181
84 5 1 17.3995 -11.5159 -11.2882
85 5 3 16.8377 -12.6418 -11.4304
86 5 3 18.5418 -11.6465 -10.6029
94 5 2 18.6392 -11.5879 -9.57585
79 5 1 14.792 -8.79917 -11.6821
80 5 1 15.6945 -7.72287 -11.7999
90 5 2 13.814 -8.62801 -12.2233
91 5 2 15.2319 -6.72726 -11.7394
81 5 1 16.9934 -7.84536 -11.2491
82 5 1 17.483 -9.12343 -11.3617
92 5 2 17.6357 -6.92968 -11.3053
93 5 2 18.3857 -9.2472 -10.8065
97 6 3 16.2206 17.3439 -9.68776
110 6 2 15.5671 16.1498 -7.19702
95 6 1 15.065 17.1029 -7.6389
108 6 2 14.0735 16.8006 -8.0847
109 6 2 14.8576 17.6719 -6.67066
96 6 1 16.0737 17.8253 -8.56221
98 6 3 17.2841 18.3124 -7.99712
99 6 1 18.2172 19.2336 -8.49443
100 6 1 17.6851 20.5496 -8.87188
101 6 1 18.5845 21.4977 -9.4065
102 6 1 19.9946 21.3762 -9.09464
103 6 1 20.3911 20.0474 -8.60169
104 6 1 19.4897 19.2408 -7.85516
105 6 1 20.1399 17.9132 -7.40865
106 6 3 19.4353 16.9948 -6.90037
107 6 3 21.3855 18.0736 -6.78707
111 6 2 16.7146 20.4884 -9.32274
114 6 2 21.451 20.0376 -8.4107
115 6 2 22.0334 17.29 -6.48087
112 6 2 18.096 22.5495 -9.54362
113 6 2 20.7165 22.0231 -9.51248
32 3 1 15.5021 -6.5349 6.76782
45 3 2 14.6391 -6.82859 6.10636
46 3 2 15.2946 -6.27452 7.86582
33 3 1 16.2571 -5.51136 6.02947
34 3 3 16.1464 -5.50228 4.76505
35 3 3 17.4714 -5.09635 6.64381
36 3 1 18.3119 -4.02859 6.34461
41 3 1 19.7197 -4.02674 6.88275
42 3 1 20.4991 -5.30802 7.04312
43 3 3 19.9916 -6.32932 7.60258
44 3 3 21.8559 -5.15182 7.45616
47 3 2 16.0815 -7.4356 6.86808
52 3 2 22.0864 -5.15286 8.46173
37 3 1 17.6782 -2.69479 6.45452
38 3 1 18.4085 -1.64857 6.0022
39 3 1 19.838 -1.67468 6.10108
40 3 1 20.454 -2.87568 6.42636
48 3 2 16.6567 -2.5953 6.17412
49 3 2 17.9437 -0.758902 6.04441
50 3 2 20.287 -0.884993 5.49953
51 3 2 21.528 -2.71609 6.75266
54 4 1 5.78472 17.8029 9.81615
55 4 3 5.76256 17.8302 8.54323
59 4 1 7.88459 21.8836 9.45887
69 4 2 6.16087 20.7769 9.16274
70 4 2 7.42587 22.8282 9.17491
11 2 1 -12.4009 -24.3291 12.1873
12 2 1 -11.3164 -23.3977 11.731
13 2 3 -10.7965 -23.7102 10.6188
14 2 3 -10.3198 -22.9618 12.5954
24 2 2 -13.1596 -24.382 11.3686
25 2 2 -12.8742 -23.8905 13.0878
26 2 2 -11.9974 -25.3923 12.3788
20 2 1 -8.1926 -22.0606 12.9521
21 2 1 -7.5017 -23.4364 12.8331
22 2 3 -8.14651 -24.523 12.9968
23 2 3 -6.22391 -23.5686 13.4611
31 2 2 -6.25321 -23.6085 14.4824
16 2 1 -10.0023 -20.5057 12.3049
27 2 2 -11.0291 -20.3839 11.9538
28 2 2 -9.4201 -18.4828 11.9587
15 2 1 -9.42883 -21.893 12.3115
17 2 1 -9.06462 -19.498 12.0233
18 2 1 -7.85877 -19.6648 12.6877
19 2 1 -7.36804 -20.9707 12.75
29 2 2 -7.10016 -18.9584 12.3976
30 2 2 -6.42107 -21.033 13.184
1 1 1 18.805 7.35726 13.7038
2 1 1 20.0141 7.88552 13.6946
3 1 1 20.6083 8.63641 14.8202
4 1 3 19.979 9.64232 15.2642
6 1 2 18.3315 7.32234 14.6223
7 1 2 18.348 6.8145 12.8459
8 1 2 20.648 7.74445 12.7838
5 1 4 22.0575 8.59317 15.0191
9 1 2 22.7007 9.20801 14.42
10 1 2 22.4539 7.74961 15.4823
68 4 2 5.94265 15.6635 10.3988
53 4 1 5.21908 16.5055 10.3741
56 4 3 6.78627 18.4492 10.4312
57 4 1 7.56115 19.5242 9.9722
58 4 1 7.01031 20.8196 9.74448
60 4 1 8.98839 21.8746 10.3234
62 4 1 8.80369 19.3821 10.5227
64 4 3 9.16409 17.0062 9.97462
66 4 2 4.30198 16.1973 9.78678
67 4 2 4.96358 16.7012 11.4401
61 4 1 9.57684 20.6005 10.5434
63 4 1 9.64309 18.0481 10.5123
65 4 3 10.9135 17.9442 11.1991
72 4 2 10.4603 20.6323 11.1668
73 4 2 11.5824 17.1985 10.9285
71 4 2 9.72344 22.6108 10.1394
ITEM: TIMESTEP
700
ITEM: NUMBER OF ATOMS
115
ITEM: BOX BOUNDS pp pp pp
-2.8628399999999999e+01 2.8628399999999999e+01
-2.8628399999999999e+01 2.8628399999999999e+01
-2.8628399999999999e+01 2.8628399999999999e+01
ITEM: ATOMS id mol type x y z
74 5 1 12.7762 -12.9907 -11.7101
75 5 1 13.2921 -11.6969 -12.2481
76 5 3 13.3636 -11.5777 -13.5197
77 5 3 14.3629 -11.1255 -11.5613
78 5 1 15.309 -10.061 -11.8721
87 5 2 11.8376 -13.2715 -12.2548
88 5 2 12.5751 -13.0144 -10.5751
89 5 2 13.4879 -13.7851 -12.0462
83 5 1 16.5361 -10.2338 -11.1758
84 5 1 17.3571 -11.5198 -11.3508
85 5 3 16.7491 -12.6425 -11.3833
86 5 3 18.4991 -11.553 -10.5838
94 5 2 18.4592 -11.7066 -9.58827
79 5 1 14.786 -8.76313 -11.7016
80 5 1 15.6813 -7.7145 -11.8786
90 5 2 13.8136 -8.64909 -12.1668
91 5 2 15.1526 -6.71823 -11.9034
81 5 1 16.9623 -7.88289 -11.2442
82 5 1 17.4619 -9.1359 -11.1456
92 5 2 17.6844 -7.09934 -11.4489
93 5 2 18.4159 -9.27136 -10.6614
97 6 3 16.2304 17.3036 -9.77848
110 6 2 15.4496 16.026 -7.41597
95 6 1 15.1591 17.0659 -7.69076
108 6 2 14.1993 16.9518 -8.2202
109 6 2 14.9625 17.572 -6.71794
96 6 1 16.1951 17.7239 -8.60109
98 6 3 17.2626 18.3466 -7.9104
99 6 1 18.1958 19.2181 -8.45947
100 6 1 17.7138 20.4527 -8.97016
101 6 1 18.653 21.388 -9.4397
102 6 1 19.9532 21.3759 -8.95631
103 6 1 20.4107 20.1314 -8.57058
104 6 1 19.4749 19.277 -7.90294
105 6 1 20.1475 17.9709 -7.45956
106 6 3 19.4215 17.0831 -6.95451
107 6 3 21.3852 18.0348 -6.90104
111 6 2 16.7165 20.4615 -9.44792
114 6 2 21.3671 20.2119 -8.24453
115 6 2 21.8998 17.2568 -6.5611
112 6 2 18.2816 22.2973 -9.80931
113 6 2 20.6376 21.9668 -9.50388
32 3 1 15.5422 -6.60135 6.74521
45 3 2 14.584 -6.80912 6.33391
46 3 2 15.5558 -6.49993 7.83207
33 3 1 16.2196 -5.50289 6.06237
34 3 3 16.1572 -5.4309 4.79604
35 3 3 17.4934 -5.22328 6.70364
36 3 1 18.2923 -4.08883 6.40022
41 3 1 19.674 -4.03592 6.83974
42 3 1 20.4677 -5.30917 7.01577
43 3 3 19.89 -6.35831 7.42145
44 3 3 21.8279 -5.24669 7.37789
47 3 2 16.1324 -7.52576 6.64866
52 3 2 22.1452 -4.8627 8.19417
37 3 1 17.6605 -2.77086 6.43052
38 3 1 18.4166 -1.59401 6.11774
39 3 1 19.8503 -1.5883 6.23348
40 3 1 20.4153 -2.8737 6.41284
48 3 2 16.6099 -2.71107 6.14647
49 3 2 17.9388 -0.613623 6.32814
50 3 2 20.3538 -0.952018 5.51756
51 3 2 21.4044 -2.69726 6.8334
54 4 1 5.68577 17.7954 9.75884
55 4 3 5.84112 17.7831 8.48539
59 4 1 7.92458 21.8201 9.44824
69 4 2 5.93283 20.7999 9.25278
70 4 2 7.4725 22.7866 9.27096
11 2 1 -12.3155 -24.425 12.0779
12 2 1 -11.3224 -23.4302 11.6039
13 2 3 -10.7681 -23.6666 10.5103
14 2 3 -10.4259 -22.9544 12.5615
24 2 2 -12.9897 -24.655 11.1936
25 2 2 -12.9288 -24.0486 12.9003
26 2 2 -11.7304 -25.3154 12.4305
20 2 1 -8.19238 -22.1544 12.9712
21 2 1 -7.45417 -23.4293 12.8462
22 2 3 -8.06432 -24.4844 12.963
23 2 3 -6.21199 -23.5978 13.3815
31 2 2 -5.99137 -23.9187 14.3255
16 2 1 -9.99175 -20.617 12.1721
27 2 2 -10.908 -20.4604 11.6968
28 2 2 -9.57936 -18.5947 11.8308
15 2 1 -9.52048 -21.9335 12.427
17 2 1 -9.10314 -19.5539 12.0571
18 2 1 -7.83271 -19.6387 12.6562
19 2 1 -7.33039 -20.9957 12.8515
29 2 2 -7.13092 -18.8039 12.4772
30 2 2 -6.30361 -21.012 13.3388
1 1 1 18.8156 7.43136 13.6546
2 1 1 20.0695 7.88313 13.6395
3 1 1 20.6009 8.67919 14.7988
4 1 3 19.8808 9.63906 15.2743
6 1 2 18.1657 7.62505 14.5216
7 1 2 18.3391 7.02647 12.8161
8 1 2 20.6862 7.75548 12.7585
5 1 4 21.995 8.61198 14.9769
9 1 2 22.4311 9.30474 14.4002
10 1 2 22.4679 7.67272 15.0914
68 4 2 6.1103 15.7567 10.2523
53 4 1 5.26315 16.5219 10.4021
56 4 3 6.78408 18.3875 10.4248
57 4 1 7.58159 19.4411 9.96149
58 4 1 6.98542 20.7678 9.63734
60 4 1 8.99508 21.8338 10.3
62 4 1 8.92204 19.4039 10.4759
64 4 3 9.22865 17.0087 10.0191
66 4 2 4.37966 16.1769 9.92351
67 4 2 5.08673 16.771 11.485
61 4 1 9.68462 20.6112 10.5614
63 4 1 9.70136 18.0789 10.4718
65 4 3 10.7918 18.0284 11.2756
72 4 2 10.3865 20.632 11.3822
73 4 2 11.4641 17.2778 11.1991
71 4 2 9.59773 22.759 10.2922
ITEM: TIMESTEP
720
ITEM: NUMBER OF ATOMS
115
ITEM: BOX BOUNDS pp pp pp
-2.8628399999999999e+01 2.8628399999999999e+01
-2.8628399999999999e+01 2.8628399999999999e+01
-2.8628399999999999e+01 2.8628399999999999e+01
ITEM: ATOMS id mol type x y z
74 5 1 12.749 -12.9259 -11.7769
75 5 1 13.3231 -11.6895 -12.2982
76 5 3 13.4254 -11.5854 -13.5527
77 5 3 14.3729 -11.0404 -11.4834
78 5 1 15.2741 -10.0839 -11.7564
87 5 2 11.8114 -13.0828 -12.2592
88 5 2 12.5844 -12.8957 -10.7362
89 5 2 13.434 -13.7443 -12.0692
83 5 1 16.5607 -10.2393 -11.1356
84 5 1 17.3117 -11.5434 -11.2865
85 5 3 16.6863 -12.6626 -11.3991
86 5 3 18.493 -11.5912 -10.5961
94 5 2 18.5032 -11.6479 -9.55158
79 5 1 14.7219 -8.71907 -11.7209
80 5 1 15.6049 -7.67173 -11.9573
90 5 2 13.7156 -8.60019 -12.1177
91 5 2 15.2114 -6.6066 -11.8769
81 5 1 16.8743 -7.82868 -11.3102
82 5 1 17.4289 -9.07999 -11.1601
92 5 2 17.4932 -6.97855 -11.3764
93 5 2 18.2635 -9.10883 -10.3979
97 6 3 16.2532 17.2897 -9.72226
110 6 2 15.447 16.0972 -7.45225
95 6 1 15.1262 17.0816 -7.73125
108 6 2 14.173 16.8567 -8.21248
109 6 2 14.9673 17.7184 -6.8348
96 6 1 16.0788 17.7862 -8.607
98 6 3 17.1476 18.4517 -7.92594
99 6 1 18.2042 19.1981 -8.55142
100 6 1 17.6737 20.4601 -9.03932
101 6 1 18.5214 21.3219 -9.54809
102 6 1 19.8994 21.3538 -9.00092
103 6 1 20.4992 20.1743 -8.54094
104 6 1 19.544 19.261 -7.9061
105 6 1 20.1804 17.9636 -7.47979
106 6 3 19.3483 17.1199 -6.97592
107 6 3 21.4523 18.0625 -6.92127
111 6 2 16.6902 20.4195 -9.47542
114 6 2 21.5505 20.2711 -8.17411
115 6 2 21.9683 17.2273 -6.72452
112 6 2 18.1166 22.2612 -9.82223
113 6 2 20.589 22.1344 -9.38677
32 3 1 15.4698 -6.58534 6.71022
45 3 2 14.3716 -6.5234 6.43826
46 3 2 15.5221 -6.49406 7.82559
33 3 1 16.2638 -5.46491 6.15046
34 3 3 16.0921 -5.32789 4.90765
35 3 3 17.5363 -5.16361 6.63682
36 3 1 18.3529 -4.00519 6.42116
41 3 1 19.7582 -3.9938 6.91652
42 3 1 20.5369 -5.31131 7.0006
43 3 3 19.9104 -6.3812 7.27412
44 3 3 21.8772 -5.30882 7.39739
47 3 2 15.8612 -7.66195 6.37748
52 3 2 22.1316 -5.27392 8.34057
37 3 1 17.7206 -2.71425 6.49511
38 3 1 18.4325 -1.61374 6.1214
39 3 1 19.7827 -1.63884 6.3559
40 3 1 20.4596 -2.84825 6.37033
48 3 2 16.7329 -2.68345 6.08466
49 3 2 17.9863 -0.654353 6.30047
50 3 2 20.2865 -0.730406 6.12714
51 3 2 21.4395 -2.68656 6.59156
54 4 1 5.70735 17.7083 9.76328
55 4 3 5.76296 17.7051 8.49888
59 4 1 7.92349 21.7513 9.41884
69 4 2 6.18042 20.6741 9.03245
70 4 2 7.3951 22.6685 9.15523
11 2 1 -12.2376 -24.3941 12.0261
12 2 1 -11.2285 -23.3854 11.5967
13 2 3 -10.7078 -23.7001 10.4684
14 2 3 -10.4483 -22.8971 12.6826
24 2 2 -12.9452 -24.613 11.2101
25 2 2 -12.8834 -24.0646 12.8752
26 2 2 -11.6757 -25.3242 12.2702
20 2 1 -8.13149 -22.0502 13.0292
21 2 1 -7.49763 -23.4455 12.8522
22 2 3 -8.19963 -24.4921 12.829
23 2 3 -6.15888 -23.556 13.3493
31 2 2 -5.89416 -23.5758 14.3264
16 2 1 -9.93475 -20.6633 12.1274
27 2 2 -10.8083 -20.5774 11.5209
28 2 2 -9.55383 -18.6154 12.0765
15 2 1 -9.45377 -21.9185 12.4737
17 2 1 -9.03494 -19.6205 11.9986
18 2 1 -7.85962 -19.6813 12.6534
19 2 1 -7.2812 -20.9325 12.8281
29 2 2 -7.09808 -18.9216 12.3218
30 2 2 -6.36201 -20.9344 13.368
1 1 1 18.77 7.58202 13.5595
2 1 1 19.9997 7.9595 13.6523
3 1 1 20.5395 8.60996 14.7964
4 1 3 19.8852 9.60495 15.22
6 1 2 17.9517 7.75123 14.2541
7 1 2 18.5975 6.95374 12.7282
8 1 2 20.7276 7.63882 12.9346
5 1 4 22.0126 8.60666 14.9211
9 1 2 22.5914 9.47232 14.7302
10 1 2 22.547 7.66112 14.888
68 4 2 6.18647 15.8439 10.2152
53 4 1 5.29682 16.4786 10.3897
56 4 3 6.79988 18.4339 10.3321
57 4 1 7.63217 19.4441 9.88154
58 4 1 7.03664 20.7099 9.6708
60 4 1 9.04969 21.8667 10.2685
62 4 1 9.01808 19.4654 10.4501
64 4 3 9.19721 17.0795 10.0109
66 4 2 4.47431 16.0448 9.80988
67 4 2 5.03274 16.6097 11.4505
61 4 1 9.68093 20.6498 10.5578
63 4 1 9.75541 18.1515 10.412
65 4 3 10.782 17.9768 11.3923
72 4 2 10.4609 20.706 11.3934
73 4 2 11.5516 17.4486 11.3221
71 4 2 9.71222 22.7225 10.2446
ITEM: TIMESTEP
740
ITEM: NUMBER OF ATOMS
115
ITEM: BOX BOUNDS pp pp pp
-2.8628399999999999e+01 2.8628399999999999e+01
-2.8628399999999999e+01 2.8628399999999999e+01
-2.8628399999999999e+01 2.8628399999999999e+01
ITEM: ATOMS id mol type x y z
74 5 1 12.6478 -12.8596 -11.7801
75 5 1 13.3144 -11.6646 -12.3679
76 5 3 13.4649 -11.7278 -13.5824
77 5 3 14.3896 -11.0924 -11.5888
78 5 1 15.262 -10.0527 -11.8541
87 5 2 11.6657 -13.003 -12.3223
88 5 2 12.492 -12.643 -10.7751
89 5 2 13.2218 -13.8565 -11.8818
83 5 1 16.572 -10.1991 -11.1863
84 5 1 17.2832 -11.5344 -11.2593
85 5 3 16.7338 -12.6768 -11.3908
86 5 3 18.475 -11.6842 -10.6361
94 5 2 18.4833 -11.6211 -9.64565
79 5 1 14.699 -8.72208 -11.7767
80 5 1 15.552 -7.6545 -11.9041
90 5 2 13.6054 -8.57639 -12.1444
91 5 2 15.167 -6.62715 -11.9509
81 5 1 16.8349 -7.78512 -11.2799
82 5 1 17.415 -9.0513 -11.2312
92 5 2 17.5046 -6.92477 -11.5056
93 5 2 18.3702 -9.12343 -10.6866
97 6 3 16.2738 17.3019 -9.65803
110 6 2 15.5272 16.1052 -7.43965
95 6 1 15.0715 17.1199 -7.69734
108 6 2 14.1116 16.7955 -8.2819
109 6 2 14.6986 17.7658 -6.83326
96 6 1 16.0039 17.9189 -8.61982
98 6 3 17.1363 18.4578 -7.99788
99 6 1 18.1698 19.2258 -8.59725
100 6 1 17.7087 20.5449 -9.01645
101 6 1 18.6083 21.3771 -9.62497
102 6 1 19.7975 21.3647 -9.01406
103 6 1 20.3284 20.1051 -8.62757
104 6 1 19.4837 19.1789 -8.03568
105 6 1 20.1238 17.9808 -7.40231
106 6 3 19.3446 17.0878 -6.94942
107 6 3 21.4528 17.964 -6.85518
111 6 2 16.7029 20.6101 -9.36083
114 6 2 21.2775 20.1928 -8.07763
115 6 2 22.003 17.1075 -6.89418
112 6 2 18.197 22.3724 -9.9056
113 6 2 20.4738 22.1915 -9.2023
32 3 1 15.4692 -6.53536 6.74489
45 3 2 14.4709 -6.46267 6.29512
46 3 2 15.3217 -6.47994 7.81368
33 3 1 16.251 -5.36601 6.19865
34 3 3 16.0535 -5.32112 4.92313
35 3 3 17.5913 -5.10403 6.65022
36 3 1 18.3917 -3.96688 6.49538
41 3 1 19.8082 -3.92653 6.91069
42 3 1 20.5362 -5.22605 6.98864
43 3 3 19.9329 -6.30319 7.24237
44 3 3 21.8582 -5.32046 7.4283
47 3 2 15.9254 -7.45168 6.36155
52 3 2 22.1943 -5.371 8.38829
37 3 1 17.728 -2.73435 6.55124
38 3 1 18.451 -1.56907 6.16752
39 3 1 19.8429 -1.52548 6.44986
40 3 1 20.5317 -2.80691 6.36314
48 3 2 16.6621 -2.78168 6.37672
49 3 2 17.8825 -0.645996 6.14163
50 3 2 20.363 -0.624321 6.15625
51 3 2 21.6007 -2.762 6.59598
54 4 1 5.8004 17.7038 9.65947
55 4 3 5.58684 17.7263 8.38742
59 4 1 7.96582 21.7723 9.35823
69 4 2 6.07224 20.7956 9.20809
70 4 2 7.60934 22.7237 8.90373
11 2 1 -12.2791 -24.4169 11.955
12 2 1 -11.2138 -23.4124 11.6263
13 2 3 -10.618 -23.7516 10.6256
14 2 3 -10.4312 -22.8668 12.5977
24 2 2 -13.0697 -24.6073 11.178
25 2 2 -12.8058 -24.0217 12.7874
26 2 2 -11.7417 -25.3683 12.233
20 2 1 -8.13599 -22.0127 13.0222
21 2 1 -7.47611 -23.3781 12.8626
22 2 3 -8.17818 -24.4047 12.8695
23 2 3 -6.24824 -23.577 13.4319
31 2 2 -6.18048 -23.5485 14.4441
16 2 1 -9.94998 -20.6437 12.2026
27 2 2 -10.8847 -20.5824 11.6693
28 2 2 -9.45824 -18.6888 11.6999
15 2 1 -9.42508 -21.9025 12.3917
17 2 1 -9.02892 -19.5875 11.9533
18 2 1 -7.80108 -19.6418 12.6421
19 2 1 -7.23875 -20.9225 12.8994
29 2 2 -7.14036 -18.8725 12.5437
30 2 2 -6.3171 -20.9618 13.4122
1 1 1 18.6845 7.57876 13.5079
2 1 1 19.9494 7.92098 13.618
3 1 1 20.5339 8.58815 14.8524
4 1 3 19.8898 9.58424 15.3204
6 1 2 18.0294 7.75289 14.3127
7 1 2 18.3309 7.20312 12.5688
8 1 2 20.6472 7.80109 12.7753
5 1 4 21.9569 8.61885 14.8532
9 1 2 22.5168 9.37335 14.4063
10 1 2 22.3191 7.67216 14.6938
68 4 2 6.07431 15.6645 10.317
53 4 1 5.24839 16.4369 10.3166
56 4 3 6.82179 18.4346 10.3471
57 4 1 7.65281 19.4135 9.87253
58 4 1 7.07931 20.7358 9.62926
60 4 1 8.98593 21.7979 10.2538
62 4 1 8.9782 19.3526 10.5516
64 4 3 9.22355 17.0882 9.9464
66 4 2 4.41573 15.9127 9.76076
67 4 2 5.0425 16.7414 11.337
61 4 1 9.69207 20.6082 10.5416
63 4 1 9.82437 18.097 10.4246
65 4 3 10.7763 17.9084 11.4182
72 4 2 10.6226 20.6326 11.074
73 4 2 11.572 17.203 11.4194
71 4 2 9.53929 22.7111 10.3588
ITEM: TIMESTEP
760
ITEM: NUMBER OF ATOMS
115
ITEM: BOX BOUNDS pp pp pp
-2.8628399999999999e+01 2.8628399999999999e+01
-2.8628399999999999e+01 2.8628399999999999e+01
-2.8628399999999999e+01 2.8628399999999999e+01
ITEM: ATOMS id mol type x y z
74 5 1 12.5615 -12.7342 -11.6772
75 5 1 13.2963 -11.6768 -12.3726
76 5 3 13.494 -11.7452 -13.6302
77 5 3 14.3952 -11.1768 -11.6782
78 5 1 15.2204 -10.0646 -11.8194
87 5 2 11.6186 -13.0258 -12.2281
88 5 2 12.2851 -12.489 -10.5792
89 5 2 13.2021 -13.6758 -11.6445
83 5 1 16.5176 -10.2474 -11.2186
84 5 1 17.3225 -11.5255 -11.3437
85 5 3 16.6991 -12.6327 -11.4264
86 5 3 18.5134 -11.6206 -10.5916
94 5 2 18.4929 -11.7893 -9.58776
79 5 1 14.6455 -8.76067 -11.8258
80 5 1 15.5272 -7.67881 -11.8472
90 5 2 13.8543 -8.64324 -12.5099
91 5 2 15.0985 -6.69595 -11.7042
81 5 1 16.789 -7.81082 -11.2446
82 5 1 17.3657 -9.06466 -11.271
92 5 2 17.4204 -6.95956 -11.4195
93 5 2 18.2196 -9.13617 -10.7557
97 6 3 16.2155 17.3765 -9.72146
110 6 2 15.7035 16.2981 -7.25716
95 6 1 15.1474 17.2166 -7.70141
108 6 2 14.268 16.81 -8.26237
109 6 2 14.7412 17.9546 -6.96948
96 6 1 16.0443 17.8925 -8.60837
98 6 3 17.1271 18.4842 -8.04064
99 6 1 18.0854 19.2734 -8.68963
100 6 1 17.6601 20.5229 -9.14947
101 6 1 18.627 21.4016 -9.65198
102 6 1 19.8205 21.3488 -9.05088
103 6 1 20.324 20.0665 -8.65285
104 6 1 19.4082 19.2196 -8.02999
105 6 1 20.0622 17.9741 -7.49296
106 6 3 19.3579 17.0877 -6.91815
107 6 3 21.3245 17.9796 -6.87864
111 6 2 16.5986 20.6612 -9.37775
114 6 2 21.4203 20.0197 -8.47425
115 6 2 21.9247 17.0782 -6.78352
112 6 2 18.2536 22.3836 -9.97317
113 6 2 20.5171 21.9951 -9.5283
32 3 1 15.5303 -6.49905 6.7959
45 3 2 14.4761 -6.63237 6.32087
46 3 2 15.445 -6.28212 7.88252
33 3 1 16.2219 -5.33965 6.18599
34 3 3 16.0966 -5.25899 4.89278
35 3 3 17.4875 -5.11055 6.70535
36 3 1 18.3734 -3.97996 6.47215
41 3 1 19.8011 -3.94907 6.94082
42 3 1 20.6169 -5.26269 6.89756
43 3 3 19.993 -6.31764 7.21485
44 3 3 21.8425 -5.32499 7.47489
47 3 2 16.143 -7.372 6.55364
52 3 2 21.9881 -5.46716 8.45714
37 3 1 17.7729 -2.73486 6.56728
38 3 1 18.4405 -1.55876 6.24245
39 3 1 19.8427 -1.57752 6.42685
40 3 1 20.534 -2.79426 6.45992
48 3 2 16.6765 -2.69606 6.26934
49 3 2 17.921 -0.601883 6.54496
50 3 2 20.3608 -0.729645 5.96366
51 3 2 21.6027 -2.6363 6.86921
54 4 1 5.67566 17.8037 9.60597
55 4 3 5.62489 17.9039 8.32494
59 4 1 8.00348 21.7317 9.30715
69 4 2 6.17604 20.7186 9.03322
70 4 2 7.49152 22.6531 9.18039
11 2 1 -12.3557 -24.3757 12.0788
12 2 1 -11.1831 -23.4838 11.5639
13 2 3 -10.57 -23.8476 10.522
14 2 3 -10.3556 -22.8936 12.5787
24 2 2 -13.1289 -24.6059 11.3263
25 2 2 -12.8886 -23.8799 12.9153
26 2 2 -11.8766 -25.3681 12.3535
20 2 1 -8.15782 -22.0689 13.0168
21 2 1 -7.44446 -23.4105 12.9343
22 2 3 -8.17377 -24.4133 13.0464
23 2 3 -6.20412 -23.5521 13.5094
31 2 2 -6.14087 -23.6732 14.5284
16 2 1 -9.95666 -20.5572 12.2861
27 2 2 -10.954 -20.4575 11.7485
28 2 2 -9.41486 -18.6228 11.869
15 2 1 -9.39892 -21.888 12.3497
17 2 1 -9.01794 -19.5739 12.0177
18 2 1 -7.85298 -19.6334 12.6847
19 2 1 -7.31055 -20.9291 12.8576
29 2 2 -7.0871 -18.8389 12.4942
30 2 2 -6.42738 -20.8711 13.5115
1 1 1 18.5982 7.56801 13.5593
2 1 1 19.8718 8.00202 13.5592
3 1 1 20.4897 8.59182 14.7625
4 1 3 19.8928 9.54768 15.3191
6 1 2 18.0227 7.67993 14.4919
7 1 2 18.1275 7.16938 12.618
8 1 2 20.4833 8.02341 12.6175
5 1 4 21.9012 8.57518 14.8875
9 1 2 22.3855 9.28577 14.3995
10 1 2 22.344 7.66678 14.9902
68 4 2 5.97943 15.6277 10.0756
53 4 1 5.36708 16.4716 10.2565
56 4 3 6.79297 18.3413 10.2251
57 4 1 7.6029 19.4296 9.90024
58 4 1 7.08951 20.7081 9.61513
60 4 1 9.03534 21.7922 10.2441
62 4 1 8.90946 19.3632 10.5236
64 4 3 9.22872 16.9734 9.95777
66 4 2 4.38469 16.183 9.87422
67 4 2 5.33416 16.6628 11.4074
61 4 1 9.7055 20.56 10.4807
63 4 1 9.67998 18.0875 10.4376
65 4 3 10.7171 17.8822 11.4607
72 4 2 10.4873 20.6006 11.2025
73 4 2 11.2386 16.9982 11.4691
71 4 2 9.78907 22.6322 10.259
ITEM: TIMESTEP
780
ITEM: NUMBER OF ATOMS
115
ITEM: BOX BOUNDS pp pp pp
-2.8628399999999999e+01 2.8628399999999999e+01
-2.8628399999999999e+01 2.8628399999999999e+01
-2.8628399999999999e+01 2.8628399999999999e+01
ITEM: ATOMS id mol type x y z
74 5 1 12.467 -12.6702 -11.7365
75 5 1 13.2475 -11.598 -12.3997
76 5 3 13.4987 -11.8102 -13.6357
77 5 3 14.3393 -11.235 -11.6394
78 5 1 15.1927 -10.1123 -11.8414
87 5 2 11.5105 -12.8393 -12.2599
88 5 2 12.2215 -12.4069 -10.6895
89 5 2 13.0163 -13.5937 -11.8052
83 5 1 16.505 -10.2823 -11.1622
84 5 1 17.3329 -11.5197 -11.3286
85 5 3 16.7314 -12.6188 -11.4441
86 5 3 18.5256 -11.5696 -10.6378
94 5 2 18.535 -11.3857 -9.651
79 5 1 14.6584 -8.78508 -11.825
80 5 1 15.4686 -7.64976 -11.7673
90 5 2 13.6665 -8.63141 -12.191
91 5 2 14.9857 -6.60877 -11.6833
81 5 1 16.7339 -7.8511 -11.1899
82 5 1 17.284 -9.09092 -11.2672
92 5 2 17.4293 -7.02916 -11.2733
93 5 2 18.2086 -9.1238 -10.7489
97 6 3 16.2148 17.4216 -9.84675
110 6 2 15.6074 16.2641 -7.37989
95 6 1 15.1288 17.1488 -7.73803
108 6 2 14.2526 16.8915 -8.29325
109 6 2 14.7623 17.7982 -6.95305
96 6 1 16.0611 17.9256 -8.68631
98 6 3 17.2028 18.4381 -7.99412
99 6 1 18.133 19.2021 -8.59281
100 6 1 17.6588 20.5052 -9.15931
101 6 1 18.6174 21.4725 -9.69459
102 6 1 19.9511 21.36 -9.19008
103 6 1 20.3501 20.0659 -8.78414
104 6 1 19.4318 19.1996 -8.03053
105 6 1 20.0152 17.9233 -7.44728
106 6 3 19.2308 17.1084 -6.85269
107 6 3 21.3019 18.0081 -6.86937
111 6 2 16.7545 20.3876 -9.74661
114 6 2 21.2508 20.2177 -8.29387
115 6 2 21.8233 17.1605 -6.71457
112 6 2 18.2109 22.4551 -10.0614
113 6 2 20.7637 21.9351 -9.6723
32 3 1 15.5059 -6.50974 6.77069
45 3 2 14.4432 -6.43953 6.61127
46 3 2 15.6587 -6.39428 7.89879
33 3 1 16.3249 -5.40784 6.14953
34 3 3 16.0945 -5.15529 4.88367
35 3 3 17.5386 -5.0481 6.76693
36 3 1 18.384 -4.00427 6.45832
41 3 1 19.754 -4.03282 6.95906
42 3 1 20.6011 -5.28057 6.93779
43 3 3 19.9259 -6.28203 7.21832
44 3 3 21.8669 -5.33559 7.54215
47 3 2 15.9127 -7.52996 6.47227
52 3 2 21.9062 -5.59355 8.56814
37 3 1 17.6746 -2.70791 6.50301
38 3 1 18.4164 -1.59996 6.24683
39 3 1 19.8309 -1.61495 6.38836
40 3 1 20.4622 -2.85871 6.52813
48 3 2 16.6713 -2.59987 6.26819
49 3 2 17.9384 -0.635674 6.25931
50 3 2 20.41 -0.754935 5.92598
51 3 2 21.4219 -2.73865 6.7136
54 4 1 5.65707 17.8067 9.59344
55 4 3 5.61046 18.0286 8.35704
59 4 1 8.04243 21.7132 9.37783
69 4 2 6.23117 20.7442 9.02465
70 4 2 7.63762 22.6735 9.17281
11 2 1 -12.2625 -24.3076 12.1284
12 2 1 -11.1857 -23.4804 11.5477
13 2 3 -10.557 -23.9321 10.5536
14 2 3 -10.3948 -22.93 12.5532
24 2 2 -13.0643 -24.3267 11.3781
25 2 2 -12.6885 -23.7343 12.9975
26 2 2 -11.8706 -25.3029 12.4526
20 2 1 -8.16237 -21.99 12.9921
21 2 1 -7.47881 -23.3093 12.9411
22 2 3 -8.05798 -24.4137 13.0492
23 2 3 -6.19011 -23.5505 13.5424
31 2 2 -6.03819 -23.5611 14.536
16 2 1 -9.91344 -20.5337 12.2059
27 2 2 -10.8537 -20.4292 11.6003
28 2 2 -9.3531 -18.4382 12.223
15 2 1 -9.44977 -21.8778 12.3624
17 2 1 -8.96934 -19.4566 12.0782
18 2 1 -7.76113 -19.6166 12.7399
19 2 1 -7.23307 -20.9214 12.8168
29 2 2 -6.95022 -18.9598 12.589
30 2 2 -6.2687 -20.9859 13.228
1 1 1 18.5644 7.53718 13.5276
2 1 1 19.8625 7.96743 13.5431
3 1 1 20.3973 8.58474 14.7448
4 1 3 19.859 9.56359 15.2612
6 1 2 17.931 7.55538 14.3583
7 1 2 18.1673 7.21319 12.5862
8 1 2 20.4502 8.02593 12.6513
5 1 4 21.8192 8.56814 14.875
9 1 2 22.42 9.42285 14.5036
10 1 2 22.2715 7.59198 14.8937
68 4 2 6.05434 15.7537 9.82415
53 4 1 5.3459 16.4397 10.2199
56 4 3 6.80087 18.3263 10.2609
57 4 1 7.69446 19.3736 9.83777
58 4 1 7.11521 20.6899 9.57932
60 4 1 9.15975 21.7377 10.1897
62 4 1 8.93148 19.2826 10.5652
64 4 3 9.21115 16.9581 9.93078
66 4 2 4.3354 16.0538 9.96362
67 4 2 5.51589 16.4495 11.2505
61 4 1 9.74339 20.4688 10.4749
63 4 1 9.64287 18.0203 10.4491
65 4 3 10.5564 17.8692 11.4521
72 4 2 10.6727 20.4912 11.0465
73 4 2 11.0682 17.0437 11.5755
71 4 2 9.81198 22.5772 10.1444
ITEM: TIMESTEP
800
ITEM: NUMBER OF ATOMS
115
ITEM: BOX BOUNDS pp pp pp
-2.8628399999999999e+01 2.8628399999999999e+01
-2.8628399999999999e+01 2.8628399999999999e+01
-2.8628399999999999e+01 2.8628399999999999e+01
ITEM: ATOMS id mol type x y z
74 5 1 12.4017 -12.7013 -11.8161
75 5 1 13.2666 -11.6734 -12.4727
76 5 3 13.4755 -11.8526 -13.6617
77 5 3 14.3324 -11.1794 -11.6861
78 5 1 15.1557 -10.1074 -11.7778
87 5 2 11.3813 -12.8368 -12.264
88 5 2 12.3085 -12.3177 -10.7633
89 5 2 12.9129 -13.7298 -11.8711
83 5 1 16.4772 -10.2247 -11.2235
84 5 1 17.2862 -11.5025 -11.3337
85 5 3 16.6969 -12.6529 -11.2606
86 5 3 18.5595 -11.5324 -10.7048
94 5 2 18.6908 -11.5428 -9.70166
79 5 1 14.5473 -8.83638 -11.7518
80 5 1 15.371 -7.72723 -11.7334
90 5 2 13.6581 -8.7358 -12.4286
91 5 2 14.9497 -6.72482 -11.4916
81 5 1 16.6099 -7.83331 -11.1985
82 5 1 17.2695 -9.00399 -11.2939
92 5 2 17.1357 -6.91585 -11.085
93 5 2 18.2897 -9.04404 -10.8831
97 6 3 16.2739 17.3508 -9.85799
110 6 2 15.4692 16.2567 -7.4655
95 6 1 15.0153 17.1851 -7.85405
108 6 2 14.0847 17.0569 -8.44072
109 6 2 14.8116 17.8523 -6.93288
96 6 1 16.0967 17.8104 -8.74842
98 6 3 17.1997 18.3554 -8.07223
99 6 1 18.1403 19.2802 -8.5908
100 6 1 17.7498 20.4988 -9.16413
101 6 1 18.6347 21.3562 -9.73514
102 6 1 19.9645 21.2841 -9.30145
103 6 1 20.456 20.0514 -8.80868
104 6 1 19.5267 19.226 -8.09374
105 6 1 20.01 17.9776 -7.36602
106 6 3 19.2476 17.1462 -6.80835
107 6 3 21.2897 18.0481 -6.8373
111 6 2 16.6713 20.542 -9.25923
114 6 2 21.5424 20.0991 -8.54958
115 6 2 21.8579 17.3166 -6.66989
112 6 2 18.2317 22.3531 -9.90194
113 6 2 20.6832 21.7815 -9.92446
32 3 1 15.5736 -6.60223 6.72901
45 3 2 14.5323 -6.35631 6.41267
46 3 2 15.5847 -6.68379 7.85235
33 3 1 16.3187 -5.47009 6.15314
34 3 3 16.1527 -5.13537 4.90925
35 3 3 17.5073 -5.12211 6.745
36 3 1 18.4118 -3.98729 6.56779
41 3 1 19.7561 -3.99612 7.02812
42 3 1 20.5608 -5.28526 7.07818
43 3 3 19.9395 -6.32378 7.15382
44 3 3 21.8672 -5.38647 7.60071
47 3 2 15.8516 -7.57991 6.32746
52 3 2 22.0857 -5.27638 8.52666
37 3 1 17.7622 -2.72121 6.57083
38 3 1 18.4763 -1.54924 6.21228
39 3 1 19.8517 -1.60252 6.4713
40 3 1 20.5157 -2.89169 6.41346
48 3 2 16.7135 -2.72465 6.2151
49 3 2 18.0175 -0.604245 6.49304
50 3 2 20.457 -0.730355 6.05759
51 3 2 21.5686 -2.75253 6.64428
54 4 1 5.71974 17.8033 9.65355
55 4 3 5.54492 17.9942 8.46409
59 4 1 8.09569 21.6904 9.33698
69 4 2 6.23386 20.6732 8.94237
70 4 2 7.69879 22.6954 9.14877
11 2 1 -12.32 -24.2514 12.0329
12 2 1 -11.2239 -23.4159 11.4981
13 2 3 -10.6001 -23.9891 10.5664
14 2 3 -10.4505 -22.8588 12.5658
24 2 2 -13.0626 -24.5394 11.2852
25 2 2 -12.8041 -23.662 12.8227
26 2 2 -11.8703 -25.1633 12.5799
20 2 1 -8.13267 -22.0712 13.0448
21 2 1 -7.42096 -23.3775 12.9184
22 2 3 -8.09384 -24.468 12.9678
23 2 3 -6.22532 -23.4552 13.6351
31 2 2 -6.20158 -23.6173 14.6069
16 2 1 -9.85256 -20.4879 12.2085
27 2 2 -10.7292 -20.385 11.5648
28 2 2 -9.40609 -18.5424 11.8512
15 2 1 -9.43466 -21.867 12.3834
17 2 1 -8.9573 -19.4971 12.0974
18 2 1 -7.74518 -19.5274 12.8046
19 2 1 -7.26852 -20.9301 12.8531
29 2 2 -6.89614 -18.8632 12.5556
30 2 2 -6.35208 -21.0088 13.3461
1 1 1 18.5376 7.46072 13.5414
2 1 1 19.7486 7.95683 13.5157
3 1 1 20.3663 8.65228 14.7344
4 1 3 19.7117 9.5931 15.2712
6 1 2 17.7985 7.57188 14.3813
7 1 2 18.1547 6.96835 12.6564
8 1 2 20.3517 7.75774 12.6479
5 1 4 21.7889 8.53962 14.9561
9 1 2 22.437 9.30469 14.6325
10 1 2 22.1863 7.60036 15.0101
68 4 2 6.11645 15.7432 9.88202
53 4 1 5.31064 16.4536 10.136
56 4 3 6.73848 18.4214 10.3748
57 4 1 7.62196 19.3609 9.86541
58 4 1 7.13094 20.6676 9.61055
60 4 1 9.19352 21.6451 10.2242
62 4 1 8.92578 19.2525 10.4837
64 4 3 9.19652 16.8826 9.90685
66 4 2 4.3485 16.1022 9.64106
67 4 2 5.13035 16.4468 11.2509
61 4 1 9.77336 20.3955 10.3689
63 4 1 9.69448 17.9439 10.4621
65 4 3 10.6243 17.7858 11.4883
72 4 2 10.7101 20.3425 10.9505
73 4 2 11.1965 17.0178 11.6928
71 4 2 9.81841 22.5498 10.2914
ITEM: TIMESTEP
820
ITEM: NUMBER OF ATOMS
115
ITEM: BOX BOUNDS pp pp pp
-2.8628399999999999e+01 2.8628399999999999e+01
-2.8628399999999999e+01 2.8628399999999999e+01
-2.8628399999999999e+01 2.8628399999999999e+01
ITEM: ATOMS id mol type x y z
74 5 1 12.4292 -12.6758 -11.7764
75 5 1 13.253 -11.6608 -12.4957
76 5 3 13.4333 -11.9142 -13.7074
77 5 3 14.2883 -11.1662 -11.6952
78 5 1 15.2317 -10.1227 -11.9101
87 5 2 11.4801 -12.7661 -12.3212
88 5 2 12.238 -12.3215 -10.7024
89 5 2 12.997 -13.6579 -11.8147
83 5 1 16.5401 -10.2129 -11.2197
84 5 1 17.2458 -11.5035 -11.2483
85 5 3 16.6395 -12.5927 -11.0162
86 5 3 18.5449 -11.4892 -10.7661
94 5 2 18.7689 -11.4414 -9.79718
79 5 1 14.569 -8.84167 -11.8116
80 5 1 15.242 -7.68323 -11.6925
90 5 2 13.5452 -8.735 -12.2143
91 5 2 14.7123 -6.79741 -11.5212
81 5 1 16.5682 -7.84299 -11.12
82 5 1 17.3315 -9.02812 -11.3691
92 5 2 17.1054 -6.89691 -11.071
93 5 2 18.3351 -9.08048 -10.9515
97 6 3 16.3847 17.2919 -9.89369
110 6 2 15.2791 16.1968 -7.54023
95 6 1 14.9902 17.2671 -7.90699
108 6 2 14.059 17.2882 -8.55966
109 6 2 14.9048 17.9421 -7.02695
96 6 1 16.0926 17.8046 -8.79555
98 6 3 17.1686 18.4068 -8.02124
99 6 1 18.2038 19.2387 -8.61055
100 6 1 17.7389 20.5879 -9.03397
101 6 1 18.7109 21.3344 -9.68467
102 6 1 20.0232 21.2189 -9.34058
103 6 1 20.4258 19.9977 -8.76794
104 6 1 19.5402 19.3001 -8.00439
105 6 1 20.0959 18.0396 -7.37086
106 6 3 19.3393 17.2249 -6.79531
107 6 3 21.3064 18.062 -6.68978
111 6 2 16.8601 20.5157 -9.60298
114 6 2 21.3947 20.0725 -8.36743
115 6 2 21.9323 17.1963 -6.64193
112 6 2 18.4156 22.2632 -10.0927
113 6 2 20.75 21.8223 -9.87865
32 3 1 15.5602 -6.5243 6.69188
45 3 2 14.4597 -6.59889 6.31765
46 3 2 15.5286 -6.55595 7.83904
33 3 1 16.2824 -5.27452 6.20477
34 3 3 16.1864 -5.22826 4.93667
35 3 3 17.573 -5.05023 6.70396
36 3 1 18.3546 -3.90937 6.58261
41 3 1 19.7657 -3.91941 6.95276
42 3 1 20.5359 -5.26572 7.11122
43 3 3 19.9745 -6.38843 7.08957
44 3 3 21.8115 -5.33639 7.64863
47 3 2 16.1083 -7.40491 6.34591
52 3 2 22.0411 -5.06264 8.60908
37 3 1 17.7148 -2.68347 6.62623
38 3 1 18.5066 -1.58778 6.20199
39 3 1 19.8859 -1.58715 6.49281
40 3 1 20.5755 -2.88064 6.41006
48 3 2 16.6334 -2.521 6.49704
49 3 2 18.0853 -0.654453 6.42404
50 3 2 20.4393 -0.812596 6.08276
51 3 2 21.6869 -2.80561 6.64861
54 4 1 5.66921 17.7735 9.65396
55 4 3 5.68781 17.9195 8.4531
59 4 1 8.12323 21.6767 9.3977
69 4 2 6.41166 20.7082 8.82117
70 4 2 7.76558 22.6402 9.04041
11 2 1 -12.3365 -24.2157 12.0601
12 2 1 -11.1784 -23.4378 11.5183
13 2 3 -10.5964 -23.9495 10.5208
14 2 3 -10.3666 -22.8084 12.4935
24 2 2 -13.0627 -24.3743 11.2122
25 2 2 -12.7749 -23.6752 12.8596
26 2 2 -12.0041 -25.1894 12.4145
20 2 1 -8.1449 -21.9883 13.0983
21 2 1 -7.43629 -23.3312 12.9657
22 2 3 -8.19211 -24.4109 12.9241
23 2 3 -6.22616 -23.4802 13.6534
31 2 2 -6.16297 -23.7625 14.6673
16 2 1 -9.88855 -20.5542 12.2693
27 2 2 -10.8159 -20.4396 11.7791
28 2 2 -9.27174 -18.5921 11.9086
15 2 1 -9.34627 -21.8496 12.33
17 2 1 -8.93333 -19.5846 12.0422
18 2 1 -7.75497 -19.6726 12.7574
19 2 1 -7.20832 -20.9387 12.9246
29 2 2 -6.95835 -18.8504 12.7559
30 2 2 -6.24874 -20.934 13.4724
1 1 1 18.6085 7.38846 13.5623
2 1 1 19.8166 7.94435 13.539
3 1 1 20.3376 8.69246 14.7247
4 1 3 19.6635 9.57452 15.2599
6 1 2 17.867 7.47925 14.387
7 1 2 18.3184 6.97814 12.602
8 1 2 20.4387 7.80077 12.6463
5 1 4 21.6927 8.61672 14.9783
9 1 2 22.3343 9.19386 14.3572
10 1 2 22.0967 7.72836 15.1848
68 4 2 6.09639 15.6431 10.0107
53 4 1 5.28822 16.3628 10.1333
56 4 3 6.67762 18.4491 10.3938
57 4 1 7.60964 19.3921 9.97824
58 4 1 7.12999 20.7124 9.61449
60 4 1 9.22058 21.6452 10.2129
62 4 1 8.99299 19.2188 10.3906
64 4 3 9.12626 16.9323 9.98616
66 4 2 4.3461 15.9528 9.64542
67 4 2 5.06872 16.4274 11.2217
61 4 1 9.76164 20.3767 10.3168
63 4 1 9.71932 17.9147 10.4834
65 4 3 10.6391 17.6773 11.5285
72 4 2 10.7829 20.3411 10.5514
73 4 2 11.332 16.9072 11.5032
71 4 2 9.89627 22.4402 9.92579
ITEM: TIMESTEP
840
ITEM: NUMBER OF ATOMS
115
ITEM: BOX BOUNDS pp pp pp
-2.8628399999999999e+01 2.8628399999999999e+01
-2.8628399999999999e+01 2.8628399999999999e+01
-2.8628399999999999e+01 2.8628399999999999e+01
ITEM: ATOMS id mol type x y z
74 5 1 12.4536 -12.7379 -11.7129
75 5 1 13.2742 -11.6295 -12.4249
76 5 3 13.4614 -11.781 -13.6664
77 5 3 14.3671 -11.1581 -11.6648
78 5 1 15.1871 -10.0957 -11.8957
87 5 2 11.5794 -13.0278 -12.3695
88 5 2 12.0744 -12.26 -10.8048
89 5 2 13.0563 -13.6419 -11.5079
83 5 1 16.4754 -10.1881 -11.2585
84 5 1 17.2771 -11.4613 -11.1912
85 5 3 16.6209 -12.5508 -10.9585
86 5 3 18.5888 -11.4444 -10.7644
94 5 2 18.8797 -11.3612 -9.76859
79 5 1 14.5862 -8.80448 -11.8173
80 5 1 15.4068 -7.6643 -11.727
90 5 2 13.6608 -8.63846 -12.3523
91 5 2 14.8959 -6.73937 -11.5756
81 5 1 16.5748 -7.79392 -11.033
82 5 1 17.2076 -8.9658 -11.3335
92 5 2 17.1696 -6.89865 -10.8733
93 5 2 18.2423 -8.98523 -10.9496
97 6 3 16.3774 17.2572 -9.79308
110 6 2 15.2532 16.4184 -7.51616
95 6 1 14.9275 17.3011 -7.97498
108 6 2 14.1328 17.124 -8.81797
109 6 2 14.5136 17.9643 -7.22971
96 6 1 16.0862 17.9387 -8.77685
98 6 3 17.207 18.4159 -8.05566
99 6 1 18.171 19.2287 -8.57498
100 6 1 17.7308 20.5154 -9.05607
101 6 1 18.6123 21.3493 -9.67902
102 6 1 20.0188 21.2624 -9.28767
103 6 1 20.4415 20.0746 -8.62213
104 6 1 19.4719 19.2708 -7.93488
105 6 1 20.1064 18.0731 -7.32235
106 6 3 19.3426 17.1732 -6.80301
107 6 3 21.4143 18.1664 -6.6835
111 6 2 16.5899 20.6152 -9.25577
114 6 2 21.5142 20.1066 -8.36137
115 6 2 21.856 17.2839 -6.49911
112 6 2 18.2917 22.3694 -9.93443
113 6 2 20.6695 21.7658 -9.95505
32 3 1 15.5249 -6.48394 6.72194
45 3 2 14.4641 -6.54599 6.30168
46 3 2 15.5469 -6.45631 7.79014
33 3 1 16.3356 -5.30378 6.22445
34 3 3 16.2336 -5.16928 4.95292
35 3 3 17.5773 -4.9924 6.79564
36 3 1 18.4111 -3.85855 6.53763
41 3 1 19.788 -3.93651 6.97685
42 3 1 20.6301 -5.2567 7.03685
43 3 3 19.921 -6.35158 7.05911
44 3 3 21.8265 -5.19943 7.69756
47 3 2 16.1045 -7.38378 6.45394
52 3 2 21.932 -5.22201 8.74003
37 3 1 17.7662 -2.53233 6.76297
38 3 1 18.5096 -1.50222 6.18112
39 3 1 19.8405 -1.56425 6.40845
40 3 1 20.4564 -2.83643 6.47569
48 3 2 16.7251 -2.41414 6.36585
49 3 2 18.0473 -0.46356 6.03588
50 3 2 20.4645 -0.797889 6.20255
51 3 2 21.4772 -2.82071 6.59883
54 4 1 5.60989 17.7268 9.68029
55 4 3 5.75598 17.9067 8.48294
59 4 1 8.08428 21.7208 9.39955
69 4 2 6.10653 20.9057 9.15939
70 4 2 7.82138 22.7517 9.0431
11 2 1 -12.3422 -24.2113 12.1068
12 2 1 -11.1808 -23.4097 11.5156
13 2 3 -10.6325 -23.8717 10.446
14 2 3 -10.3848 -22.8424 12.5331
24 2 2 -13.2262 -24.3069 11.3889
25 2 2 -12.7001 -23.7278 13.0441
26 2 2 -12.0542 -25.2122 12.3078
20 2 1 -8.09452 -21.9885 13.0582
21 2 1 -7.41838 -23.3711 12.9971
22 2 3 -8.16214 -24.3619 12.8816
23 2 3 -6.26665 -23.6521 13.5893
31 2 2 -6.22214 -23.7194 14.5532
16 2 1 -9.83147 -20.5006 12.2094
27 2 2 -10.7552 -20.3577 11.6554
28 2 2 -9.22529 -18.4824 11.7877
15 2 1 -9.34405 -21.841 12.3921
17 2 1 -8.89491 -19.4935 11.964
18 2 1 -7.8266 -19.6039 12.7997
19 2 1 -7.2145 -20.879 12.9922
29 2 2 -7.04994 -18.8605 12.7035
30 2 2 -6.43054 -20.858 13.7144
1 1 1 18.6489 7.30632 13.4638
2 1 1 19.8712 7.90343 13.5425
3 1 1 20.3131 8.64879 14.7391
4 1 3 19.6454 9.54878 15.2477
6 1 2 17.9852 7.39958 14.3206
7 1 2 18.4361 6.7403 12.6081
8 1 2 20.5508 7.86483 12.6953
5 1 4 21.7286 8.57143 14.8882
9 1 2 22.3398 9.21324 14.3446
10 1 2 22.2259 7.72738 15.378
68 4 2 6.22872 15.7695 10.0365
53 4 1 5.27769 16.3607 10.2321
56 4 3 6.66816 18.3844 10.3762
57 4 1 7.55241 19.4175 9.90242
58 4 1 7.04286 20.7628 9.64431
60 4 1 9.31148 21.6464 10.1206
62 4 1 8.99623 19.2912 10.5212
64 4 3 9.14508 16.9267 10.0996
66 4 2 4.39583 15.918 9.6956
67 4 2 4.96876 16.4231 11.2757
61 4 1 9.8475 20.3558 10.2901
63 4 1 9.75995 17.9439 10.4984
65 4 3 10.664 17.6056 11.5192
72 4 2 10.898 20.3192 10.7677
73 4 2 11.3295 16.8274 11.3835
71 4 2 9.9698 22.4039 9.96646
ITEM: TIMESTEP
860
ITEM: NUMBER OF ATOMS
115
ITEM: BOX BOUNDS pp pp pp
-2.8628399999999999e+01 2.8628399999999999e+01
-2.8628399999999999e+01 2.8628399999999999e+01
-2.8628399999999999e+01 2.8628399999999999e+01
ITEM: ATOMS id mol type x y z
74 5 1 12.5139 -12.7687 -11.7391
75 5 1 13.208 -11.6996 -12.3871
76 5 3 13.4805 -11.7215 -13.6115
77 5 3 14.3407 -11.2365 -11.673
78 5 1 15.2071 -10.0488 -11.8673
87 5 2 11.6139 -13.0034 -12.2419
88 5 2 12.3413 -12.4393 -10.7344
89 5 2 13.1213 -13.6807 -11.7265
83 5 1 16.4872 -10.1293 -11.1915
84 5 1 17.2999 -11.357 -11.2551
85 5 3 16.7613 -12.4708 -10.9873
86 5 3 18.5825 -11.4941 -10.7566
94 5 2 18.8382 -11.468 -9.85074
79 5 1 14.5518 -8.77297 -11.9338
80 5 1 15.3738 -7.60606 -11.7467
90 5 2 13.6971 -8.55476 -12.5593
91 5 2 14.8487 -6.67395 -11.6817
81 5 1 16.6008 -7.72438 -11.0793
82 5 1 17.2791 -8.97501 -11.2972
92 5 2 17.2244 -6.83031 -11.0085
93 5 2 18.3137 -9.03061 -11.0788
97 6 3 16.4062 17.2608 -9.76164
110 6 2 15.1902 16.3868 -7.55697
95 6 1 14.859 17.3417 -8.03032
108 6 2 13.9845 17.2143 -8.69662
109 6 2 14.6446 18.0482 -7.21528
96 6 1 16.0279 17.9272 -8.76353
98 6 3 17.1117 18.4648 -8.0188
99 6 1 18.1552 19.2556 -8.4902
100 6 1 17.6928 20.4448 -9.065
101 6 1 18.6133 21.3408 -9.60457
102 6 1 19.9275 21.3363 -9.17111
103 6 1 20.351 20.1328 -8.56356
104 6 1 19.4521 19.3217 -7.8085
105 6 1 20.1046 18.0794 -7.31284
106 6 3 19.3714 17.2147 -6.77552
107 6 3 21.3639 18.1685 -6.74405
111 6 2 16.805 20.2716 -9.67767
114 6 2 21.3101 20.2809 -8.16094
115 6 2 21.8923 17.4066 -6.66126
112 6 2 18.2286 22.1902 -10.1161
113 6 2 20.6263 21.8001 -9.97838
32 3 1 15.4633 -6.44781 6.73108
45 3 2 14.4411 -6.33443 6.29084
46 3 2 15.4211 -6.37307 7.8483
33 3 1 16.3098 -5.26282 6.24731
34 3 3 16.24 -5.09176 4.95075
35 3 3 17.5647 -5.07157 6.76167
36 3 1 18.3543 -3.89501 6.64844
41 3 1 19.7799 -3.91847 6.93534
42 3 1 20.5754 -5.21137 6.91708
43 3 3 20.0602 -6.36066 7.02843
44 3 3 21.7726 -5.17431 7.67786
47 3 2 15.8439 -7.43126 6.4495
52 3 2 21.8056 -5.21798 8.6457
37 3 1 17.7628 -2.58035 6.67377
38 3 1 18.5079 -1.53943 6.11189
39 3 1 19.8924 -1.53739 6.42468
40 3 1 20.5349 -2.8116 6.46792
48 3 2 16.7702 -2.38792 6.83271
49 3 2 18.0441 -0.527435 6.21799
50 3 2 20.5089 -0.770853 5.94447
51 3 2 21.5706 -2.77998 6.64373
54 4 1 5.64869 17.8233 9.73538
55 4 3 5.73935 17.9066 8.5105
59 4 1 7.99183 21.7535 9.40696
69 4 2 6.12851 20.8126 9.27266
70 4 2 7.57535 22.7634 9.45192
11 2 1 -12.2705 -24.2721 12.1247
12 2 1 -11.1795 -23.4018 11.6086
13 2 3 -10.6997 -23.7606 10.5013
14 2 3 -10.3116 -22.8315 12.5015
24 2 2 -13.0689 -24.4304 11.3769
25 2 2 -12.7732 -23.771 13.0407
26 2 2 -11.8959 -25.3019 12.4408
20 2 1 -8.13143 -22.0098 13.1601
21 2 1 -7.41755 -23.3861 12.9442
22 2 3 -8.09712 -24.4732 12.8786
23 2 3 -6.16991 -23.6649 13.6361
31 2 2 -6.15645 -23.9414 14.6162
16 2 1 -9.84199 -20.4615 12.1317
27 2 2 -10.7257 -20.3451 11.5313
28 2 2 -9.22486 -18.4945 11.7711
15 2 1 -9.35298 -21.7899 12.3605
17 2 1 -8.87965 -19.4734 12.0364
18 2 1 -7.67558 -19.5495 12.7824
19 2 1 -7.2319 -20.8537 13.0658
29 2 2 -6.92231 -18.8323 12.5523
30 2 2 -6.26979 -20.9434 13.5075
1 1 1 18.6766 7.24962 13.4686
2 1 1 19.838 7.82788 13.4795
3 1 1 20.2819 8.57792 14.6476
4 1 3 19.646 9.49696 15.1836
6 1 2 18.0354 7.25102 14.3413
7 1 2 18.3286 6.70791 12.5747
8 1 2 20.3233 7.95905 12.5241
5 1 4 21.7059 8.46796 14.9128
9 1 2 22.3594 9.04544 14.3477
10 1 2 22.0929 7.57075 15.1959
68 4 2 6.17033 15.7009 9.9012
53 4 1 5.30537 16.489 10.1716
56 4 3 6.69885 18.4558 10.459
57 4 1 7.54509 19.4359 10.0393
58 4 1 7.12684 20.7289 9.7273
60 4 1 9.28334 21.646 9.93972
62 4 1 8.94593 19.2717 10.4705
64 4 3 9.04582 16.9016 10.1334
66 4 2 4.43542 16.2704 9.62261
67 4 2 5.00389 16.4688 11.2085
61 4 1 9.82318 20.3777 10.2404
63 4 1 9.60457 17.9189 10.6005
65 4 3 10.6152 17.6516 11.5719
72 4 2 10.8143 20.3633 10.7674
73 4 2 11.2531 16.8746 11.4245
71 4 2 10.0118 22.4779 9.6827
ITEM: TIMESTEP
880
ITEM: NUMBER OF ATOMS
115
ITEM: BOX BOUNDS pp pp pp
-2.8628399999999999e+01 2.8628399999999999e+01
-2.8628399999999999e+01 2.8628399999999999e+01
-2.8628399999999999e+01 2.8628399999999999e+01
ITEM: ATOMS id mol type x y z
74 5 1 12.544 -12.8579 -11.7396
75 5 1 13.2569 -11.6647 -12.3892
76 5 3 13.4392 -11.8164 -13.6493
77 5 3 14.4048 -11.2152 -11.6769
78 5 1 15.2485 -10.073 -11.8895
87 5 2 11.4944 -13.0274 -12.2857
88 5 2 12.4474 -12.8656 -10.6157
89 5 2 13.0809 -13.7897 -11.9336
83 5 1 16.5257 -10.1311 -11.2617
84 5 1 17.3332 -11.4057 -11.2627
85 5 3 16.7369 -12.4877 -11.0238
86 5 3 18.6434 -11.4262 -10.7818
94 5 2 18.8812 -11.2874 -9.77243
79 5 1 14.5532 -8.80569 -11.9136
80 5 1 15.2945 -7.64093 -11.833
90 5 2 13.6265 -8.66897 -12.4017
91 5 2 14.6789 -6.82563 -11.5691
81 5 1 16.5704 -7.72773 -11.2357
82 5 1 17.3022 -8.94137 -11.3124
92 5 2 17.1279 -6.74733 -11.0728
93 5 2 18.2248 -9.00422 -10.7529
97 6 3 16.4358 17.2706 -9.84184
110 6 2 15.1521 16.5288 -7.49711
95 6 1 14.8579 17.4163 -8.06579
108 6 2 14.0667 17.2157 -8.74303
109 6 2 14.5623 18.2562 -7.33971
96 6 1 16.0633 17.8808 -8.76674
98 6 3 17.0269 18.4894 -7.99527
99 6 1 18.0502 19.3559 -8.42296
100 6 1 17.6 20.4979 -9.08253
101 6 1 18.5811 21.3181 -9.69691
102 6 1 19.8489 21.3638 -9.01118
103 6 1 20.3404 20.2116 -8.43781
104 6 1 19.3913 19.3909 -7.77594
105 6 1 20.0217 18.0769 -7.33185
106 6 3 19.307 17.2314 -6.81467
107 6 3 21.3427 18.1957 -6.83203
111 6 2 16.6546 20.4586 -9.61967
114 6 2 21.3195 20.356 -7.9895
115 6 2 22.0042 17.4482 -6.82574
112 6 2 18.2343 22.2679 -9.94314
113 6 2 20.5782 22.0134 -9.44608
32 3 1 15.4216 -6.4606 6.73519
45 3 2 14.3545 -6.3161 6.41691
46 3 2 15.4776 -6.46732 7.87566
33 3 1 16.2034 -5.2946 6.24339
34 3 3 16.1168 -5.0917 4.94578
35 3 3 17.4742 -5.11951 6.82373
36 3 1 18.3788 -3.93412 6.64655
41 3 1 19.7966 -4.00301 6.93915
42 3 1 20.5906 -5.21453 6.90735
43 3 3 20.0742 -6.34801 6.83305
44 3 3 21.722 -5.16451 7.68399
47 3 2 15.8394 -7.38411 6.35615
52 3 2 21.5459 -5.24068 8.73342
37 3 1 17.8559 -2.64395 6.6846
38 3 1 18.5612 -1.53912 6.11205
39 3 1 19.8897 -1.53497 6.39543
40 3 1 20.5092 -2.77672 6.58714
48 3 2 16.8784 -2.43526 6.94758
49 3 2 18.0748 -0.629755 5.91903
50 3 2 20.5362 -0.695725 6.02817
51 3 2 21.5411 -2.55621 6.89394
54 4 1 5.66796 17.9061 9.74382
55 4 3 5.8165 17.9556 8.50398
59 4 1 7.88328 21.8114 9.38195
69 4 2 6.11197 20.7267 9.1756
70 4 2 7.4641 22.7999 9.22058
11 2 1 -12.3185 -24.2954 12.1641
12 2 1 -11.2839 -23.2688 11.6683
13 2 3 -10.7401 -23.7853 10.6324
14 2 3 -10.2651 -22.77 12.5538
24 2 2 -13.0255 -24.592 11.3823
25 2 2 -13.0004 -23.8315 12.8192
26 2 2 -11.8114 -25.1641 12.6008
20 2 1 -8.04668 -22.0145 13.1162
21 2 1 -7.4783 -23.3634 13.0733
22 2 3 -7.99361 -24.4933 12.802
23 2 3 -6.22082 -23.5093 13.6468
31 2 2 -6.09845 -24.0587 14.5023
16 2 1 -9.72481 -20.479 12.2303
27 2 2 -10.5836 -20.4296 11.6358
28 2 2 -9.28333 -18.4039 12.137
15 2 1 -9.25201 -21.7965 12.3252
17 2 1 -8.83906 -19.4362 12.1051
18 2 1 -7.66223 -19.6349 12.8793
19 2 1 -7.09803 -20.9039 12.9615
29 2 2 -6.95012 -18.8481 12.727
30 2 2 -6.17473 -20.9224 13.5734
1 1 1 18.6337 7.20858 13.4589
2 1 1 19.7978 7.88523 13.484
3 1 1 20.2635 8.45096 14.7685
4 1 3 19.7269 9.51274 15.121
6 1 2 18.0671 7.08666 14.3448
7 1 2 18.2362 6.80934 12.5863
8 1 2 20.1936 8.21316 12.5683
5 1 4 21.7104 8.39073 15.0505
9 1 2 22.2776 9.04482 14.4712
10 1 2 22.0672 7.42711 15.2658
68 4 2 6.14042 15.8762 9.80333
53 4 1 5.27125 16.5046 10.0538
56 4 3 6.72282 18.5173 10.5687
57 4 1 7.64542 19.505 10.0964
58 4 1 7.04458 20.7646 9.77058
60 4 1 9.30222 21.7195 9.8339
62 4 1 9.05669 19.3025 10.403
64 4 3 8.9276 16.8913 10.1048
66 4 2 4.32975 16.2267 9.53865
67 4 2 5.05982 16.3791 11.1531
61 4 1 9.90435 20.4683 10.1423
63 4 1 9.50951 17.8892 10.6555
65 4 3 10.5662 17.7053 11.5647
72 4 2 10.8924 20.5112 10.5092
73 4 2 11.4524 17.2475 11.2493
71 4 2 10.0131 22.3737 9.41717
ITEM: TIMESTEP
900
ITEM: NUMBER OF ATOMS
115
ITEM: BOX BOUNDS pp pp pp
-2.8628399999999999e+01 2.8628399999999999e+01
-2.8628399999999999e+01 2.8628399999999999e+01
-2.8628399999999999e+01 2.8628399999999999e+01
ITEM: ATOMS id mol type x y z
74 5 1 12.5718 -12.8372 -11.7885
75 5 1 13.3707 -11.7747 -12.4213
76 5 3 13.5007 -11.8489 -13.6501
77 5 3 14.4042 -11.1403 -11.7086
78 5 1 15.2373 -10.0673 -11.9847
87 5 2 11.6247 -12.9062 -12.3697
88 5 2 12.3539 -12.5187 -10.7735
89 5 2 13.0591 -13.8302 -11.7187
83 5 1 16.5537 -10.1036 -11.2511
84 5 1 17.3823 -11.3853 -11.2593
85 5 3 16.807 -12.4899 -11.1674
86 5 3 18.6734 -11.3324 -10.7065
94 5 2 18.7784 -11.0532 -9.75737
79 5 1 14.5379 -8.83209 -11.8438
80 5 1 15.3205 -7.64944 -11.8511
90 5 2 13.5511 -8.7381 -12.1827
91 5 2 14.7709 -6.71737 -11.9653
81 5 1 16.5471 -7.68007 -11.2187
82 5 1 17.2679 -8.88129 -11.2747
92 5 2 17.1553 -6.84759 -11.4351
93 5 2 18.1346 -8.81562 -10.6826
97 6 3 16.4805 17.1948 -9.82971
110 6 2 15.1993 16.6342 -7.45121
95 6 1 14.8504 17.4653 -8.15813
108 6 2 14.1409 17.0398 -8.94348
109 6 2 14.4627 18.3141 -7.59999
96 6 1 16.1045 17.9306 -8.83124
98 6 3 17.0602 18.4617 -8.02882
99 6 1 17.9953 19.401 -8.46556
100 6 1 17.5194 20.6447 -9.09575
101 6 1 18.5436 21.4472 -9.71226
102 6 1 19.7463 21.4638 -8.94765
103 6 1 20.2011 20.2449 -8.35398
104 6 1 19.2549 19.4088 -7.78826
105 6 1 19.9633 18.1206 -7.33973
106 6 3 19.2667 17.1896 -6.85389
107 6 3 21.3427 18.2247 -6.88293
111 6 2 16.635 20.6095 -9.60557
114 6 2 21.1582 20.3513 -7.91942
115 6 2 21.9227 17.3569 -6.93567
112 6 2 18.2605 22.3411 -10.3046
113 6 2 20.5067 21.9845 -9.39322
32 3 1 15.49 -6.44269 6.80016
45 3 2 14.4307 -6.52046 6.48529
46 3 2 15.4496 -6.22532 7.78521
33 3 1 16.2592 -5.32472 6.22957
34 3 3 16.0859 -5.19536 4.94653
35 3 3 17.4495 -5.02027 6.87484
36 3 1 18.2994 -3.95349 6.604
41 3 1 19.7419 -3.99032 7.01694
42 3 1 20.564 -5.22942 6.86636
43 3 3 20.0068 -6.3191 6.78015
44 3 3 21.7921 -5.17559 7.63286
47 3 2 16.0454 -7.39352 6.6753
52 3 2 21.7536 -5.28278 8.6574
37 3 1 17.8089 -2.65398 6.71849
38 3 1 18.5709 -1.6975 6.00777
39 3 1 19.9122 -1.5404 6.44714
40 3 1 20.5559 -2.84332 6.61403
48 3 2 16.7457 -2.42991 6.80337
49 3 2 18.0661 -0.771556 5.71753
50 3 2 20.4902 -0.737451 5.87768
51 3 2 21.629 -2.79186 6.92658
54 4 1 5.78005 17.819 9.66853
55 4 3 5.89966 18.0365 8.47021
59 4 1 7.97695 21.7587 9.30919
69 4 2 6.04634 21.021 9.46207
70 4 2 7.64112 22.7048 8.96591
11 2 1 -12.3611 -24.1452 12.2049
12 2 1 -11.2204 -23.3458 11.7244
13 2 3 -10.7036 -23.7683 10.6573
14 2 3 -10.3493 -22.7821 12.6656
24 2 2 -13.0529 -24.464 11.3317
25 2 2 -12.9966 -23.5116 12.8632
26 2 2 -11.9287 -24.986 12.8327
20 2 1 -8.082 -22.008 13.0569
21 2 1 -7.4006 -23.367 13.0127
22 2 3 -8.03012 -24.4248 12.7256
23 2 3 -6.2113 -23.5148 13.672
31 2 2 -6.07039 -23.9529 14.5486
16 2 1 -9.74879 -20.5207 12.2116
27 2 2 -10.5386 -20.3669 11.5727
28 2 2 -9.27189 -18.479 12.3681
15 2 1 -9.35916 -21.8594 12.3475
17 2 1 -8.79433 -19.4549 12.1969
18 2 1 -7.61256 -19.6439 12.9411
19 2 1 -7.14122 -20.9378 12.9252
29 2 2 -6.88305 -18.8528 12.8704
30 2 2 -6.20059 -21.1419 13.4727
1 1 1 18.6416 7.06368 13.4102
2 1 1 19.7589 7.84091 13.5364
3 1 1 20.2866 8.48876 14.7766
4 1 3 19.7971 9.55241 15.186
6 1 2 18.0342 6.76298 14.2986
7 1 2 18.2874 6.82519 12.4431
8 1 2 20.2682 8.15508 12.5776
5 1 4 21.6255 8.36866 15.0369
9 1 2 22.3178 9.0685 14.5706
10 1 2 22.0355 7.49965 15.3773
68 4 2 6.09905 15.7176 10.0213
53 4 1 5.30952 16.4519 10.0508
56 4 3 6.5978 18.5257 10.55
57 4 1 7.50553 19.518 10.0624
58 4 1 7.07546 20.8366 9.78676
60 4 1 9.25726 21.7707 9.81134
62 4 1 8.91411 19.3512 10.4076
64 4 3 9.06746 16.9077 10.1218
66 4 2 4.39194 16.1582 9.45306
67 4 2 4.89314 16.5404 11.1046
61 4 1 9.83581 20.4864 10.0403
63 4 1 9.51386 17.9815 10.6062
65 4 3 10.5154 17.7116 11.5301
72 4 2 10.8088 20.4608 10.4275
73 4 2 11.4114 17.3518 11.3529
71 4 2 9.94395 22.4602 9.39437
ITEM: TIMESTEP
920
ITEM: NUMBER OF ATOMS
115
ITEM: BOX BOUNDS pp pp pp
-2.8628399999999999e+01 2.8628399999999999e+01
-2.8628399999999999e+01 2.8628399999999999e+01
-2.8628399999999999e+01 2.8628399999999999e+01
ITEM: ATOMS id mol type x y z
74 5 1 12.5885 -12.7433 -11.8466
75 5 1 13.4201 -11.7393 -12.4889
76 5 3 13.5986 -11.8534 -13.7286
77 5 3 14.4452 -11.1864 -11.6549
78 5 1 15.2252 -10.0403 -11.9133
87 5 2 11.6927 -13.0435 -12.4199
88 5 2 12.3548 -12.4243 -10.7992
89 5 2 13.2601 -13.6621 -11.7841
83 5 1 16.5559 -10.0464 -11.2415
84 5 1 17.3632 -11.3052 -11.3041
85 5 3 16.9185 -12.4539 -11.2735
86 5 3 18.6766 -11.2685 -10.7555
94 5 2 18.9353 -11.4128 -9.79312
79 5 1 14.5918 -8.79129 -11.8403
80 5 1 15.4139 -7.63988 -12.0532
90 5 2 13.6267 -8.71816 -12.3238
91 5 2 14.8317 -6.69608 -12.0732
81 5 1 16.5727 -7.65261 -11.368
82 5 1 17.2853 -8.84563 -11.258
92 5 2 17.1921 -6.8795 -11.4337
93 5 2 18.2827 -8.69815 -10.803
97 6 3 16.5013 17.2203 -9.85865
110 6 2 15.1697 16.5107 -7.59853
95 6 1 14.8415 17.4333 -8.16919
108 6 2 14.0596 17.2139 -8.89796
109 6 2 14.6047 18.2849 -7.48735
96 6 1 16.0459 17.9389 -8.89574
98 6 3 17.0974 18.4762 -8.09851
99 6 1 18.0419 19.3815 -8.49428
100 6 1 17.5878 20.6556 -9.09923
101 6 1 18.6114 21.4445 -9.67683
102 6 1 19.7936 21.5633 -8.96096
103 6 1 20.2293 20.3667 -8.39993
104 6 1 19.2639 19.4378 -7.79716
105 6 1 19.9487 18.1004 -7.35345
106 6 3 19.2509 17.2127 -6.79861
107 6 3 21.2431 18.1092 -6.88431
111 6 2 16.6746 20.7218 -9.61753
114 6 2 21.2385 20.3528 -7.8845
115 6 2 21.8812 17.3266 -6.99484
112 6 2 18.3523 22.3421 -10.1541
113 6 2 20.5456 22.2135 -9.42611
32 3 1 15.5491 -6.46979 6.87468
45 3 2 14.5545 -6.63898 6.43918
46 3 2 15.4305 -6.34206 7.92869
33 3 1 16.1896 -5.29196 6.24254
34 3 3 16.074 -5.23975 4.9693
35 3 3 17.4449 -5.00819 6.78125
36 3 1 18.3343 -3.93932 6.65585
41 3 1 19.7907 -3.95081 6.98225
42 3 1 20.572 -5.25212 6.96378
43 3 3 19.9576 -6.30284 6.85784
44 3 3 21.8554 -5.28796 7.59634
47 3 2 16.1923 -7.37287 6.671
52 3 2 22.0746 -5.1321 8.55153
37 3 1 17.7759 -2.66842 6.69991
38 3 1 18.6044 -1.66375 6.12662
39 3 1 19.9537 -1.66866 6.50317
40 3 1 20.5647 -2.91886 6.5954
48 3 2 16.7186 -2.55167 6.39298
49 3 2 18.263 -0.704473 5.84847
50 3 2 20.5926 -0.939811 6.16603
51 3 2 21.5201 -2.85216 6.98456
54 4 1 5.67379 17.842 9.63755
55 4 3 5.851 17.9986 8.38835
59 4 1 8.01578 21.7524 9.20298
69 4 2 6.02088 20.9583 9.39969
70 4 2 7.71782 22.8397 9.03817
11 2 1 -12.4597 -23.92 12.3064
12 2 1 -11.1704 -23.3474 11.7623
13 2 3 -10.621 -23.7085 10.6783
14 2 3 -10.3513 -22.7725 12.7375
24 2 2 -13.1788 -24.0754 11.5162
25 2 2 -12.966 -23.2102 13.0752
26 2 2 -12.1851 -24.8628 12.829
20 2 1 -8.052 -21.9864 13.1172
21 2 1 -7.34867 -23.3454 12.9308
22 2 3 -8.0879 -24.3901 12.7219
23 2 3 -6.19722 -23.6128 13.6592
31 2 2 -6.19274 -23.9345 14.6248
16 2 1 -9.78793 -20.4507 12.2441
27 2 2 -10.7459 -20.2372 11.6804
28 2 2 -8.98252 -18.4676 12.0126
15 2 1 -9.35155 -21.8168 12.4725
17 2 1 -8.75945 -19.4938 12.2024
18 2 1 -7.63914 -19.6522 12.9761
19 2 1 -7.16811 -20.9625 13.0255
29 2 2 -6.9111 -18.8332 12.9841
30 2 2 -6.32941 -21.1082 13.5536
1 1 1 18.6417 7.02737 13.4417
2 1 1 19.7384 7.82014 13.4527
3 1 1 20.297 8.51755 14.7063
4 1 3 19.7715 9.53277 15.1811
6 1 2 18.1418 6.71258 14.375
7 1 2 18.2433 6.64536 12.5078
8 1 2 20.3275 7.95871 12.5606
5 1 4 21.6619 8.26933 15.0226
9 1 2 22.3878 8.99854 14.7656
10 1 2 22.1015 7.31396 15.0195
68 4 2 6.1349 15.7733 10.1759
53 4 1 5.27548 16.4129 10.1709
56 4 3 6.58109 18.4889 10.4658
57 4 1 7.51383 19.5286 10.0318
58 4 1 7.02816 20.8891 9.81486
60 4 1 9.27754 21.6049 9.85984
62 4 1 8.84324 19.321 10.5343
64 4 3 9.15006 17.0222 10.0232
66 4 2 4.53713 15.9601 9.47521
67 4 2 4.78793 16.4717 11.1358
61 4 1 9.76352 20.2492 10.0218
63 4 1 9.47215 18.0137 10.7307
65 4 3 10.5298 17.8447 11.641
72 4 2 10.746 20.2283 10.4507
73 4 2 11.4539 17.4919 11.3711
71 4 2 10.0546 22.2481 9.52508
ITEM: TIMESTEP
940
ITEM: NUMBER OF ATOMS
115
ITEM: BOX BOUNDS pp pp pp
-2.8628399999999999e+01 2.8628399999999999e+01
-2.8628399999999999e+01 2.8628399999999999e+01
-2.8628399999999999e+01 2.8628399999999999e+01
ITEM: ATOMS id mol type x y z
74 5 1 12.5595 -12.7841 -11.919
75 5 1 13.453 -11.6911 -12.5308
76 5 3 13.6975 -11.799 -13.7799
77 5 3 14.4606 -11.2112 -11.7069
78 5 1 15.2815 -10.0217 -11.8088
87 5 2 11.7149 -12.9639 -12.5835
88 5 2 12.1753 -12.462 -10.8726
89 5 2 12.9845 -13.8035 -11.8149
83 5 1 16.5818 -10.0456 -11.1844
84 5 1 17.4554 -11.2739 -11.3863
85 5 3 17.027 -12.4434 -11.2968
86 5 3 18.7645 -11.1971 -10.7802
94 5 2 18.9217 -11.318 -9.76205
79 5 1 14.6135 -8.75941 -11.8862
80 5 1 15.4302 -7.60861 -12.1238
90 5 2 13.5912 -8.69509 -12.3522
91 5 2 14.8714 -6.71498 -12.2137
81 5 1 16.5866 -7.54138 -11.3779
82 5 1 17.3006 -8.84476 -11.3752
92 5 2 17.2476 -6.67951 -11.5125
93 5 2 18.2631 -8.78094 -10.8168
97 6 3 16.4605 17.2342 -9.84012
110 6 2 15.2494 16.3519 -7.75023
95 6 1 14.924 17.3001 -8.19498
108 6 2 14.0859 17.1606 -8.92739
109 6 2 14.6375 18.051 -7.37704
96 6 1 16.1148 17.9027 -8.83962
98 6 3 17.1288 18.4783 -8.07047
99 6 1 18.109 19.3953 -8.52138
100 6 1 17.6657 20.5825 -9.1249
101 6 1 18.5674 21.529 -9.71687
102 6 1 19.8174 21.5492 -9.03701
103 6 1 20.3284 20.3811 -8.45561
104 6 1 19.3918 19.3984 -7.88907
105 6 1 19.986 18.0888 -7.32548
106 6 3 19.245 17.2442 -6.76889
107 6 3 21.2813 18.0394 -6.98466
111 6 2 16.6081 20.5711 -9.56413
114 6 2 21.101 20.5059 -7.79195
115 6 2 21.7755 17.2212 -6.8589
112 6 2 18.1998 22.4941 -9.93982
113 6 2 20.5368 22.1989 -9.45536
32 3 1 15.5259 -6.45364 6.89385
45 3 2 14.4653 -6.50197 6.6942
46 3 2 15.6018 -6.4941 8.03352
33 3 1 16.2187 -5.25138 6.20179
34 3 3 16.0749 -5.08383 4.93693
35 3 3 17.4528 -5.04566 6.80344
36 3 1 18.3569 -3.95425 6.56781
41 3 1 19.7832 -3.99185 7.08158
42 3 1 20.5272 -5.29967 6.99269
43 3 3 19.9136 -6.36084 6.8082
44 3 3 21.7864 -5.38054 7.51522
47 3 2 15.8551 -7.39623 6.47189
52 3 2 21.8173 -5.23744 8.47642
37 3 1 17.8302 -2.64757 6.61995
38 3 1 18.5782 -1.61476 6.13936
39 3 1 19.9551 -1.60678 6.4716
40 3 1 20.6076 -2.8922 6.59188
48 3 2 16.7793 -2.47125 6.42332
49 3 2 18.2089 -0.629958 6.23021
50 3 2 20.6461 -0.794937 5.98961
51 3 2 21.658 -2.88525 6.61583
54 4 1 5.69012 17.7999 9.67449
55 4 3 5.76986 17.8966 8.43972
59 4 1 7.97336 21.6769 9.2826
69 4 2 5.94501 20.8297 9.39779
70 4 2 7.64317 22.6785 9.11645
11 2 1 -12.436 -23.7914 12.3965
12 2 1 -11.1894 -23.1785 11.8018
13 2 3 -10.6166 -23.7021 10.7384
14 2 3 -10.3324 -22.7053 12.698
24 2 2 -13.1164 -24.0385 11.5426
25 2 2 -12.85 -23.1031 13.0845
26 2 2 -12.2268 -24.7142 12.9957
20 2 1 -8.07845 -22.0808 13.1471
21 2 1 -7.32226 -23.3566 12.9601
22 2 3 -7.98276 -24.4189 12.8115
23 2 3 -6.18301 -23.6579 13.5888
31 2 2 -6.24835 -23.8977 14.5596
16 2 1 -9.80268 -20.4269 12.3173
27 2 2 -10.6703 -20.3014 11.6176
28 2 2 -9.06345 -18.4193 11.9983
15 2 1 -9.33745 -21.7884 12.4765
17 2 1 -8.80365 -19.4979 12.1679
18 2 1 -7.75606 -19.6712 13.0516
19 2 1 -7.18239 -21.0071 13.1954
29 2 2 -7.03314 -18.8388 13.1302
30 2 2 -6.37769 -21.1054 13.9118
1 1 1 18.6965 7.05788 13.4695
2 1 1 19.7175 7.89168 13.4303
3 1 1 20.2897 8.50388 14.6267
4 1 3 19.7246 9.49255 15.1263
6 1 2 18.2527 6.90285 14.4942
7 1 2 18.3405 6.46392 12.5517
8 1 2 20.2045 7.9647 12.4901
5 1 4 21.6371 8.24157 14.9204
9 1 2 22.2993 8.93425 15.2265
10 1 2 22.0618 7.3055 14.7261
68 4 2 5.96845 15.6829 10.1042
53 4 1 5.26034 16.5008 10.2459
56 4 3 6.56307 18.4774 10.4508
57 4 1 7.4881 19.4896 10.0873
58 4 1 6.98597 20.7859 9.77587
60 4 1 9.28747 21.5069 9.69564
62 4 1 8.7979 19.2854 10.5607
64 4 3 9.20713 17.0083 9.98861
66 4 2 4.25193 16.1582 9.83222
67 4 2 5.04233 16.557 11.3198
61 4 1 9.72386 20.2128 10.0151
63 4 1 9.32683 17.9047 10.9497
65 4 3 10.5177 17.9442 11.6924
72 4 2 10.8141 20.0855 10.2467
73 4 2 11.377 17.5002 11.3696
71 4 2 10.0417 22.1429 9.19501
ITEM: TIMESTEP
960
ITEM: NUMBER OF ATOMS
115
ITEM: BOX BOUNDS pp pp pp
-2.8628399999999999e+01 2.8628399999999999e+01
-2.8628399999999999e+01 2.8628399999999999e+01
-2.8628399999999999e+01 2.8628399999999999e+01
ITEM: ATOMS id mol type x y z
74 5 1 12.5871 -12.7559 -11.984
75 5 1 13.4134 -11.6357 -12.4662
76 5 3 13.7283 -11.6398 -13.701
77 5 3 14.482 -11.1866 -11.6672
78 5 1 15.2805 -10.0267 -11.8542
87 5 2 11.7345 -13.0329 -12.6947
88 5 2 12.1714 -12.4222 -10.9958
89 5 2 13.1056 -13.6584 -11.8759
83 5 1 16.5882 -10.0561 -11.2443
84 5 1 17.4958 -11.2943 -11.3402
85 5 3 17.1159 -12.5002 -11.3545
86 5 3 18.7562 -11.214 -10.8651
94 5 2 18.7953 -11.0133 -9.8207
79 5 1 14.6284 -8.81156 -11.9135
80 5 1 15.3838 -7.65298 -12.0553
90 5 2 13.7181 -8.67742 -12.4818
91 5 2 14.8469 -6.74106 -12.0798
81 5 1 16.5273 -7.58923 -11.3759
82 5 1 17.3023 -8.78863 -11.4037
92 5 2 17.1344 -6.62814 -11.4638
93 5 2 18.2959 -8.61871 -11.0072
97 6 3 16.5247 17.2374 -9.94609
110 6 2 15.1544 16.2726 -7.69708
95 6 1 14.9168 17.2315 -8.23582
108 6 2 14.117 17.0802 -8.9994
109 6 2 14.5328 17.9336 -7.5575
96 6 1 16.1682 17.8671 -8.89699
98 6 3 17.1076 18.5082 -8.01588
99 6 1 18.1645 19.3357 -8.57191
100 6 1 17.7032 20.5338 -9.16995
101 6 1 18.5227 21.5569 -9.63528
102 6 1 19.8172 21.5615 -9.05031
103 6 1 20.3243 20.4156 -8.42857
104 6 1 19.3605 19.4629 -7.8326
105 6 1 19.9665 18.1125 -7.41465
106 6 3 19.2336 17.1939 -6.8687
107 6 3 21.352 18.0568 -7.03573
111 6 2 16.77 20.506 -9.59862
114 6 2 21.3714 20.2753 -8.24102
115 6 2 21.8561 17.15 -6.84496
112 6 2 18.0511 22.4969 -9.94603
113 6 2 20.4921 22.2759 -9.42847
32 3 1 15.5101 -6.36112 6.79933
45 3 2 14.3867 -6.38761 6.62105
46 3 2 15.6632 -6.33459 7.85639
33 3 1 16.2453 -5.20684 6.1966
34 3 3 16.1689 -5.01171 4.95189
35 3 3 17.5626 -4.93788 6.81897
36 3 1 18.427 -3.96761 6.49928
41 3 1 19.7398 -4.02686 7.06448
42 3 1 20.4328 -5.3619 7.04337
43 3 3 19.807 -6.37393 6.76728
44 3 3 21.7427 -5.45874 7.57726
47 3 2 15.9547 -7.2862 6.31459
52 3 2 21.9277 -5.80835 8.53907
37 3 1 17.8256 -2.65753 6.52935
38 3 1 18.6177 -1.57533 6.17379
39 3 1 19.9683 -1.59304 6.4689
40 3 1 20.4799 -2.88269 6.56561
48 3 2 16.8033 -2.5968 6.25553
49 3 2 18.2066 -0.589514 6.27994
50 3 2 20.6546 -0.820218 6.20639
51 3 2 21.5314 -2.89655 6.88893
54 4 1 5.6748 17.7422 9.72089
55 4 3 5.82043 17.8691 8.46668
59 4 1 7.94686 21.6141 9.25918
69 4 2 6.03735 20.9193 9.52404
70 4 2 7.54047 22.6442 9.09772
11 2 1 -12.405 -23.7042 12.4427
12 2 1 -11.21 -23.0956 11.7908
13 2 3 -10.7312 -23.7647 10.7914
14 2 3 -10.296 -22.648 12.7676
24 2 2 -13.0714 -24.2167 11.6462
25 2 2 -12.8509 -22.9143 13.0298
26 2 2 -12.1212 -24.4684 13.1922
20 2 1 -8.07719 -22.0706 13.189
21 2 1 -7.31451 -23.391 12.935
22 2 3 -8.08608 -24.465 12.781
23 2 3 -6.11399 -23.628 13.6747
31 2 2 -6.1735 -23.6831 14.6324
16 2 1 -9.75045 -20.4747 12.3415
27 2 2 -10.6657 -20.3922 11.8024
28 2 2 -9.28258 -18.5447 12.2712
15 2 1 -9.30332 -21.8101 12.4436
17 2 1 -8.854 -19.4891 12.2351
18 2 1 -7.7796 -19.6234 13.1816
19 2 1 -7.24246 -20.9366 13.3253
29 2 2 -6.98993 -18.9711 13.1365
30 2 2 -6.35708 -20.903 13.9872
1 1 1 18.6004 7.12576 13.5847
2 1 1 19.6775 7.93104 13.4327
3 1 1 20.2395 8.58117 14.5933
4 1 3 19.7064 9.52536 15.1826
6 1 2 18.1919 6.98066 14.561
7 1 2 18.0692 6.8207 12.6971
8 1 2 19.978 8.14387 12.4229
5 1 4 21.6154 8.24082 14.9267
9 1 2 22.2301 8.84711 15.5516
10 1 2 21.9362 7.32754 14.7445
68 4 2 6.00146 15.6656 10.0424
53 4 1 5.15005 16.4179 10.1904
56 4 3 6.53546 18.5123 10.5634
57 4 1 7.54323 19.4266 10.0563
58 4 1 7.04486 20.7389 9.84841
60 4 1 9.31669 21.5278 9.6192
62 4 1 8.83167 19.3317 10.5457
64 4 3 9.28414 17.1086 10.0059
66 4 2 4.20807 16.0557 9.76318
67 4 2 4.96769 16.4771 11.2828
61 4 1 9.76258 20.2056 9.88455
63 4 1 9.34652 18.0158 10.8751
65 4 3 10.4038 17.8186 11.6525
72 4 2 10.7755 20.2172 10.3363
73 4 2 11.2969 17.7972 11.1563
71 4 2 9.94322 22.212 9.01629
ITEM: TIMESTEP
980
ITEM: NUMBER OF ATOMS
115
ITEM: BOX BOUNDS pp pp pp
-2.8628399999999999e+01 2.8628399999999999e+01
-2.8628399999999999e+01 2.8628399999999999e+01
-2.8628399999999999e+01 2.8628399999999999e+01
ITEM: ATOMS id mol type x y z
74 5 1 12.6583 -12.6849 -11.9566
75 5 1 13.4263 -11.5729 -12.4842
76 5 3 13.6346 -11.6269 -13.73
77 5 3 14.5002 -11.1507 -11.6782
78 5 1 15.3505 -10.067 -11.9795
87 5 2 11.7661 -12.9352 -12.5637
88 5 2 12.3471 -12.6223 -10.8738
89 5 2 13.2262 -13.6539 -12.1377
83 5 1 16.5807 -10.0659 -11.3187
84 5 1 17.506 -11.2734 -11.4058
85 5 3 16.9887 -12.4423 -11.4142
86 5 3 18.7772 -11.1866 -10.845
94 5 2 18.8526 -11.1635 -9.88162
79 5 1 14.5937 -8.83213 -11.8989
80 5 1 15.2603 -7.66774 -12.0209
90 5 2 13.6679 -8.7779 -12.3229
91 5 2 14.6848 -6.7829 -12.1758
81 5 1 16.497 -7.5856 -11.3357
82 5 1 17.286 -8.78419 -11.4522
92 5 2 17.0698 -6.7178 -11.5383
93 5 2 18.2267 -8.66581 -10.9863
97 6 3 16.5965 17.3462 -9.97006
110 6 2 15.2549 16.4148 -7.66738
95 6 1 14.9261 17.3157 -8.25571
108 6 2 14.1565 17.0878 -9.09287
109 6 2 14.4384 18.0316 -7.60836
96 6 1 16.1177 17.882 -8.92407
98 6 3 17.1032 18.4183 -8.11794
99 6 1 18.078 19.3102 -8.51801
100 6 1 17.6291 20.5656 -9.12588
101 6 1 18.5366 21.5238 -9.60339
102 6 1 19.7256 21.5962 -8.93264
103 6 1 20.1924 20.3575 -8.40944
104 6 1 19.328 19.4035 -7.83951
105 6 1 20.0038 18.1108 -7.42022
106 6 3 19.274 17.2563 -6.86544
107 6 3 21.2862 18.0954 -6.99231
111 6 2 16.6927 20.5844 -9.74823
114 6 2 21.1187 20.521 -7.87628
115 6 2 21.794 17.2408 -6.76271
112 6 2 18.1924 22.5081 -9.9048
113 6 2 20.5007 22.217 -9.4068
32 3 1 15.5492 -6.30557 6.70506
45 3 2 14.489 -6.27528 6.32171
46 3 2 15.6285 -6.27119 7.8121
33 3 1 16.2695 -5.16887 6.19157
34 3 3 16.1973 -5.00391 4.97638
35 3 3 17.4591 -5.0003 6.872
36 3 1 18.324 -3.93993 6.51114
41 3 1 19.7096 -4.02837 6.97973
42 3 1 20.4235 -5.39358 7.01681
43 3 3 19.8183 -6.47729 6.75392
44 3 3 21.7338 -5.53116 7.58304
47 3 2 15.9668 -7.28877 6.33129
52 3 2 21.895 -5.96852 8.43387
37 3 1 17.7708 -2.6135 6.42079
38 3 1 18.5921 -1.57401 6.14329
39 3 1 19.9107 -1.69196 6.51611
40 3 1 20.5724 -2.95274 6.59255
48 3 2 16.7287 -2.56221 6.04677
49 3 2 18.1554 -0.548555 6.20828
50 3 2 20.501 -0.925506 6.10718
51 3 2 21.6256 -3.05104 6.82608
54 4 1 5.66213 17.7715 9.7745
55 4 3 5.79077 17.9263 8.50914
59 4 1 7.90818 21.6677 9.24448
69 4 2 6.11476 20.7962 9.41134
70 4 2 7.49572 22.6004 9.11535
11 2 1 -12.4842 -23.5443 12.3703
12 2 1 -11.2106 -23.0256 11.7935
13 2 3 -10.8083 -23.7512 10.8468
14 2 3 -10.2341 -22.6855 12.7039
24 2 2 -13.2513 -23.8285 11.6464
25 2 2 -12.8632 -22.731 13.1289
26 2 2 -12.1664 -24.4516 13.0023
20 2 1 -7.96099 -22.0533 13.1419
21 2 1 -7.31407 -23.3886 12.9303
22 2 3 -8.06632 -24.421 12.7058
23 2 3 -6.18393 -23.6261 13.6144
31 2 2 -6.09194 -23.9676 14.5857
16 2 1 -9.75424 -20.4887 12.3839
27 2 2 -10.6338 -20.3981 11.7694
28 2 2 -9.33983 -18.5343 12.2215
15 2 1 -9.2072 -21.7942 12.4531
17 2 1 -8.89045 -19.4603 12.3721
18 2 1 -7.77592 -19.558 13.1875
19 2 1 -7.16027 -20.8546 13.3438
29 2 2 -7.11154 -18.6896 13.3563
30 2 2 -6.41287 -20.9297 14.0777
1 1 1 18.5366 7.26937 13.541
2 1 1 19.6254 8.00617 13.5057
3 1 1 20.2568 8.62074 14.6664
4 1 3 19.7499 9.64099 15.1832
6 1 2 18.0286 7.07156 14.4364
7 1 2 18.1777 6.83066 12.6144
8 1 2 20.1335 8.11959 12.4909
5 1 4 21.6407 8.2148 14.9196
9 1 2 22.0444 8.50202 15.8418
10 1 2 21.9594 7.25477 14.6216
68 4 2 5.96749 15.6653 10.2645
53 4 1 5.1222 16.4809 10.2468
56 4 3 6.54368 18.4496 10.5778
57 4 1 7.5126 19.4418 10.1553
58 4 1 7.03947 20.7028 9.83532
60 4 1 9.26774 21.5841 9.66702
62 4 1 8.87512 19.3684 10.5741
64 4 3 9.24782 17.1354 9.88551
66 4 2 4.29613 16.1639 9.56353
67 4 2 4.76511 16.5 11.2719
61 4 1 9.80665 20.2684 9.84562
63 4 1 9.363 17.9599 10.8795
65 4 3 10.4212 17.7239 11.7507
72 4 2 10.7962 20.3008 10.0809
73 4 2 11.3155 18.098 11.4979
71 4 2 9.95771 22.3194 9.24867
ITEM: TIMESTEP
1000
ITEM: NUMBER OF ATOMS
115
ITEM: BOX BOUNDS pp pp pp
-2.8628399999999999e+01 2.8628399999999999e+01
-2.8628399999999999e+01 2.8628399999999999e+01
-2.8628399999999999e+01 2.8628399999999999e+01
ITEM: ATOMS id mol type x y z
74 5 1 12.6905 -12.5963 -11.8302
75 5 1 13.4333 -11.5664 -12.4642
76 5 3 13.5308 -11.6412 -13.7297
77 5 3 14.5074 -11.1663 -11.7076
78 5 1 15.2754 -10.0127 -11.9165
87 5 2 11.8213 -12.7482 -12.3777
88 5 2 12.4424 -12.3572 -10.6973
89 5 2 13.1655 -13.6376 -11.9548
83 5 1 16.6195 -9.9994 -11.3653
84 5 1 17.4855 -11.2279 -11.4911
85 5 3 16.9594 -12.3741 -11.3295
86 5 3 18.7762 -11.2047 -10.8516
94 5 2 18.9466 -11.2299 -9.87664
79 5 1 14.5276 -8.81029 -11.9847
80 5 1 15.1791 -7.60495 -12.0478
90 5 2 13.596 -8.80495 -12.4941
91 5 2 14.5565 -6.74689 -11.8518
81 5 1 16.4679 -7.5564 -11.4319
82 5 1 17.2281 -8.71806 -11.3692
92 5 2 16.9716 -6.61006 -11.2751
93 5 2 18.1696 -8.53063 -10.842
97 6 3 16.5978 17.3207 -9.95738
110 6 2 15.304 16.3827 -7.87794
95 6 1 14.9411 17.2692 -8.33646
108 6 2 14.1076 17.0887 -8.99243
109 6 2 14.5535 17.9333 -7.49117
96 6 1 16.1062 17.9366 -8.97145
98 6 3 17.0907 18.4493 -8.13709
99 6 1 18.0982 19.3414 -8.52115
100 6 1 17.5299 20.5299 -8.97068
101 6 1 18.458 21.4764 -9.47688
102 6 1 19.6486 21.5689 -8.80633
103 6 1 20.2283 20.3507 -8.29969
104 6 1 19.343 19.4178 -7.75787
105 6 1 19.9915 18.0801 -7.4911
106 6 3 19.2366 17.2937 -6.85155
107 6 3 21.3386 18.1195 -6.92949
111 6 2 16.7212 20.4328 -9.6782
114 6 2 21.2349 20.4912 -7.81182
115 6 2 22.0495 17.3804 -6.88973
112 6 2 18.0366 22.4046 -9.81435
113 6 2 20.3606 22.355 -9.06185
32 3 1 15.4612 -6.3939 6.62136
45 3 2 14.5478 -6.40894 6.03456
46 3 2 15.2043 -6.44996 7.73121
33 3 1 16.2401 -5.14493 6.1639
34 3 3 16.2056 -5.01931 4.92841
35 3 3 17.4957 -4.94931 6.85047
36 3 1 18.3692 -3.91398 6.60654
41 3 1 19.7336 -4.04082 7.01553
42 3 1 20.4757 -5.38312 6.9789
43 3 3 19.916 -6.49298 6.75859
44 3 3 21.7235 -5.57739 7.52976
47 3 2 16.111 -7.30918 6.39949
52 3 2 21.6977 -5.77526 8.52053
37 3 1 17.8328 -2.58807 6.52959
38 3 1 18.7075 -1.58719 6.0773
39 3 1 20.017 -1.66399 6.48094
40 3 1 20.5553 -2.93376 6.58686
48 3 2 16.8322 -2.54752 6.01114
49 3 2 18.3592 -0.574577 6.03369
50 3 2 20.6719 -0.900066 6.08418
51 3 2 21.5337 -3.0051 6.96871
54 4 1 5.67115 17.7545 9.81318
55 4 3 5.71601 17.8156 8.53917
59 4 1 7.87794 21.7177 9.2353
69 4 2 6.01251 20.8329 9.37087
70 4 2 7.52954 22.7234 9.05974
11 2 1 -12.5693 -23.4679 12.4403
12 2 1 -11.2005 -23.0234 11.8539
13 2 3 -10.8641 -23.7791 10.8542
14 2 3 -10.1722 -22.691 12.7295
24 2 2 -13.3494 -23.3734 11.6535
25 2 2 -12.7096 -22.7172 13.2402
26 2 2 -12.5533 -24.4907 12.9132
20 2 1 -7.91915 -21.9501 13.1926
21 2 1 -7.31323 -23.331 12.874
22 2 3 -8.03824 -24.3747 12.693
23 2 3 -6.15326 -23.599 13.5037
31 2 2 -6.07049 -23.9386 14.4502
16 2 1 -9.74207 -20.52 12.373
27 2 2 -10.5644 -20.4441 11.7362
28 2 2 -9.48054 -18.4755 12.4658
15 2 1 -9.17758 -21.8095 12.4724
17 2 1 -8.91582 -19.4195 12.4394
18 2 1 -7.76421 -19.5445 13.1811
19 2 1 -7.13222 -20.7933 13.2786
29 2 2 -6.98162 -18.7469 13.0802
30 2 2 -6.30205 -20.7914 13.9835
1 1 1 18.5967 7.28153 13.5915
2 1 1 19.6745 8.03108 13.5665
3 1 1 20.2595 8.63002 14.7583
4 1 3 19.8532 9.76787 15.0766
6 1 2 18.1758 6.99696 14.5582
7 1 2 18.1546 6.95514 12.6827
8 1 2 20.0748 8.26043 12.5898
5 1 4 21.6394 8.29795 14.9773
9 1 2 22.1515 8.65973 15.7809
10 1 2 21.9662 7.36068 14.5958
68 4 2 5.86313 15.6361 10.1858
53 4 1 5.15061 16.464 10.3652
56 4 3 6.61254 18.5209 10.6236
57 4 1 7.4486 19.5303 10.2368
58 4 1 6.96489 20.7742 9.82111
60 4 1 9.16913 21.5996 9.60837
62 4 1 8.84247 19.3623 10.5997
64 4 3 9.20237 17.1898 9.86273
66 4 2 4.22269 16.162 9.83185
67 4 2 4.95694 16.5834 11.4271
61 4 1 9.63303 20.3031 9.93399
63 4 1 9.3668 17.9794 10.8525
65 4 3 10.3702 17.6977 11.7461
72 4 2 10.7084 20.2653 10.0037
73 4 2 11.3372 17.9862 11.7136
71 4 2 9.87464 22.2607 9.23026
ITEM: TIMESTEP
1020
ITEM: NUMBER OF ATOMS
115
ITEM: BOX BOUNDS pp pp pp
-2.8628399999999999e+01 2.8628399999999999e+01
-2.8628399999999999e+01 2.8628399999999999e+01
-2.8628399999999999e+01 2.8628399999999999e+01
ITEM: ATOMS id mol type x y z
74 5 1 12.6584 -12.6012 -11.7232
75 5 1 13.3775 -11.5797 -12.4914
76 5 3 13.357 -11.5334 -13.782
77 5 3 14.6063 -11.1909 -11.875
78 5 1 15.2955 -9.96589 -11.9896
87 5 2 11.7804 -12.9752 -12.2498
88 5 2 12.2563 -12.2277 -10.7623
89 5 2 13.2344 -13.5531 -11.6172
83 5 1 16.6443 -9.99268 -11.4174
84 5 1 17.5304 -11.239 -11.4421
85 5 3 16.9716 -12.3624 -11.1558
86 5 3 18.7881 -11.1615 -10.8269
94 5 2 18.8859 -10.9525 -9.84178
79 5 1 14.4969 -8.76012 -12.0618
80 5 1 15.209 -7.53903 -12.1331
90 5 2 13.5029 -8.78866 -12.5971
91 5 2 14.6254 -6.61006 -12.0687
81 5 1 16.3708 -7.51151 -11.387
82 5 1 17.2061 -8.64853 -11.3388
92 5 2 16.878 -6.6212 -11.6164
93 5 2 18.14 -8.41538 -10.8743
97 6 3 16.5743 17.304 -9.98946
112 6 2 18.0031 22.5095 -9.68393
110 6 2 15.156 16.2051 -7.78188
95 6 1 14.93 17.187 -8.2568
108 6 2 14.1146 17.1028 -8.9836
109 6 2 14.4809 17.8478 -7.4666
96 6 1 16.1698 17.8531 -8.90016
98 6 3 17.0763 18.4308 -8.06251
99 6 1 18.0607 19.2922 -8.53227
100 6 1 17.59 20.5567 -8.94705
101 6 1 18.4417 21.5354 -9.38457
102 6 1 19.6876 21.5577 -8.72219
103 6 1 20.2441 20.3598 -8.22993
104 6 1 19.3308 19.3413 -7.75747
105 6 1 19.9986 18.0762 -7.37151
106 6 3 19.306 17.2182 -6.7486
107 6 3 21.2625 18.1577 -6.88203
111 6 2 16.6709 20.6473 -9.4934
114 6 2 21.1729 20.5782 -7.79757
115 6 2 21.8309 17.2827 -6.58204
113 6 2 20.4418 22.1735 -9.23143
32 3 1 15.4729 -6.41128 6.54687
45 3 2 14.5175 -6.45783 5.99451
46 3 2 15.2393 -6.41557 7.61986
33 3 1 16.286 -5.19632 6.09275
34 3 3 16.368 -5.05145 4.87363
35 3 3 17.5001 -4.95746 6.82172
36 3 1 18.4344 -3.95983 6.53937
41 3 1 19.795 -4.05967 7.05673
42 3 1 20.5459 -5.37465 6.96424
43 3 3 19.9182 -6.45718 6.78595
44 3 3 21.806 -5.57192 7.62635
47 3 2 16.132 -7.30008 6.36484
52 3 2 21.7443 -5.63712 8.63077
37 3 1 17.8862 -2.59058 6.53758
38 3 1 18.6976 -1.58183 6.04416
39 3 1 20.0608 -1.67092 6.49067
40 3 1 20.6713 -2.92479 6.65621
48 3 2 16.8975 -2.49296 6.16373
49 3 2 18.2233 -0.609003 6.09785
50 3 2 20.7948 -0.941142 6.09673
51 3 2 21.6335 -2.95272 7.03385
55 4 3 5.70541 17.8311 8.62266
59 4 1 7.78804 21.6772 9.27835
69 4 2 5.88039 20.884 9.44241
71 4 2 9.86761 22.1735 8.9594
70 4 2 7.35453 22.6501 8.95834
11 2 1 -12.5592 -23.437 12.479
12 2 1 -11.228 -23.2305 11.8928
13 2 3 -10.828 -23.821 10.8336
14 2 3 -10.2162 -22.7782 12.749
24 2 2 -13.2593 -23.2108 11.6553
25 2 2 -12.7099 -22.7451 13.2996
26 2 2 -12.6779 -24.4511 12.7685
21 2 1 -7.3513 -23.348 12.9091
22 2 3 -7.99651 -24.4179 12.8079
23 2 3 -6.09385 -23.5432 13.5268
31 2 2 -5.94681 -23.5377 14.4982
16 2 1 -9.72732 -20.439 12.2997
27 2 2 -10.6296 -20.335 11.7775
20 2 1 -7.98441 -21.9765 13.1145
28 2 2 -9.41818 -18.3428 12.5319
15 2 1 -9.19446 -21.8214 12.4541
17 2 1 -8.90766 -19.3207 12.4439
18 2 1 -7.70366 -19.5385 13.1653
19 2 1 -7.10137 -20.8574 13.2004
29 2 2 -7.14618 -18.6593 13.65
30 2 2 -6.12792 -20.9243 13.721
1 1 1 18.6569 7.21194 13.6498
2 1 1 19.7223 8.0198 13.5942
3 1 1 20.3203 8.64674 14.8045
6 1 2 18.2167 7.01549 14.5951
7 1 2 18.2622 6.79952 12.7595
8 1 2 20.1877 8.22967 12.7002
5 1 4 21.6854 8.2944 15.0208
9 1 2 22.1602 8.65997 15.8681
10 1 2 21.9603 7.29825 14.8502
68 4 2 5.7807 15.7446 10.0898
4 1 3 19.9593 9.85067 15.0076
54 4 1 5.58069 17.8118 9.88741
53 4 1 5.11791 16.5151 10.3825
56 4 3 6.55039 18.4435 10.6331
57 4 1 7.3762 19.4934 10.1581
58 4 1 6.87514 20.7568 9.83295
60 4 1 9.16401 21.6651 9.63285
62 4 1 8.73692 19.4799 10.7085
64 4 3 9.24753 17.281 9.88966
66 4 2 4.11719 16.2774 10.0461
67 4 2 5.0155 16.6173 11.4801
63 4 1 9.26717 18.0681 10.896
61 4 1 9.64262 20.3565 10.0285
65 4 3 10.3058 17.8361 11.7056
72 4 2 10.6947 20.3717 10.3933
73 4 2 11.3107 17.9612 11.4312
ITEM: TIMESTEP
1040
ITEM: NUMBER OF ATOMS
115
ITEM: BOX BOUNDS pp pp pp
-2.8628399999999999e+01 2.8628399999999999e+01
-2.8628399999999999e+01 2.8628399999999999e+01
-2.8628399999999999e+01 2.8628399999999999e+01
ITEM: ATOMS id mol type x y z
74 5 1 12.6327 -12.6262 -11.8953
75 5 1 13.351 -11.5427 -12.5587
76 5 3 13.1626 -11.5408 -13.8169
77 5 3 14.5467 -11.1515 -11.992
78 5 1 15.3392 -10.0033 -12.1658
87 5 2 11.5309 -12.8238 -12.2646
88 5 2 12.5546 -12.3461 -10.838
89 5 2 13.1569 -13.577 -11.9902
83 5 1 16.5923 -9.94449 -11.3712
84 5 1 17.5569 -11.1183 -11.2987
85 5 3 17.0993 -12.3405 -11.1601
86 5 3 18.8702 -10.9584 -10.7786
94 5 2 19.1111 -11.0587 -9.78977
79 5 1 14.6021 -8.78731 -12.0961
80 5 1 15.2552 -7.55472 -12.0981
90 5 2 13.7499 -8.72814 -12.7323
91 5 2 14.6792 -6.66035 -12.0803
81 5 1 16.4181 -7.43536 -11.3142
82 5 1 17.2138 -8.63613 -11.3001
92 5 2 16.8927 -6.49679 -11.3206
93 5 2 18.0687 -8.53389 -10.6691
97 6 3 16.4673 17.251 -9.92878
112 6 2 18.0456 22.4713 -9.54998
110 6 2 15.2291 16.2405 -7.58414
95 6 1 14.9442 17.1284 -8.27322
108 6 2 14.2058 16.7544 -9.08162
109 6 2 14.4589 17.8327 -7.54783
96 6 1 16.1123 17.7382 -8.85488
98 6 3 17.1114 18.3404 -8.06313
99 6 1 18.0493 19.2744 -8.5207
100 6 1 17.5359 20.5429 -8.94921
101 6 1 18.4677 21.5169 -9.35998
102 6 1 19.7142 21.5317 -8.75749
103 6 1 20.1976 20.3362 -8.29205
104 6 1 19.3255 19.2966 -7.78769
105 6 1 19.948 18.028 -7.27728
106 6 3 19.3256 17.1653 -6.59477
107 6 3 21.2523 18.0763 -6.76185
111 6 2 16.658 20.5671 -9.53354
114 6 2 21.0661 20.536 -7.73963
115 6 2 21.854 17.3062 -6.78565
113 6 2 20.3828 22.3813 -8.9362
32 3 1 15.4867 -6.37732 6.55561
45 3 2 14.4859 -6.34994 6.04302
46 3 2 15.2485 -6.14781 7.62
33 3 1 16.363 -5.23403 6.09496
34 3 3 16.4189 -5.07275 4.86733
35 3 3 17.5662 -4.99212 6.78573
36 3 1 18.4301 -3.89319 6.51336
41 3 1 19.7985 -4.11814 6.96024
42 3 1 20.532 -5.44503 7.03225
43 3 3 19.9065 -6.46272 6.73167
44 3 3 21.8523 -5.49082 7.63617
47 3 2 16.0627 -7.34041 6.45959
52 3 2 21.9268 -5.52514 8.65054
37 3 1 17.8945 -2.63154 6.59347
38 3 1 18.7204 -1.57498 6.17016
39 3 1 20.0873 -1.68924 6.49566
40 3 1 20.6143 -2.97644 6.66816
48 3 2 16.8429 -2.53406 6.39971
49 3 2 18.2823 -0.655372 6.17372
50 3 2 20.7873 -0.923521 6.16862
51 3 2 21.6146 -2.99396 7.10819
55 4 3 5.75143 17.8671 8.63653
59 4 1 7.79568 21.6878 9.23107
69 4 2 5.8315 20.8865 9.5198
71 4 2 9.87394 22.3332 9.09925
70 4 2 7.39564 22.6536 9.10445
11 2 1 -12.5828 -23.5004 12.4572
12 2 1 -11.2177 -23.2961 11.8434
13 2 3 -10.8301 -23.9523 10.8201
14 2 3 -10.1978 -22.8144 12.7316
24 2 2 -13.3881 -23.4531 11.6192
25 2 2 -12.8701 -22.759 13.2189
26 2 2 -12.5646 -24.5292 12.8953
21 2 1 -7.35655 -23.4216 13.0512
22 2 3 -8.00441 -24.4489 12.8396
23 2 3 -6.03923 -23.5962 13.5311
31 2 2 -5.85345 -23.6183 14.5213
16 2 1 -9.69174 -20.4038 12.2408
27 2 2 -10.5065 -20.1938 11.4879
20 2 1 -7.98467 -21.9953 13.0853
28 2 2 -9.08774 -18.3197 12.4099
15 2 1 -9.27847 -21.7649 12.5126
17 2 1 -8.75369 -19.3265 12.4761
18 2 1 -7.62264 -19.6074 13.2531
19 2 1 -7.12555 -20.8845 13.0144
29 2 2 -6.87504 -18.886 13.2422
30 2 2 -6.25965 -20.9895 13.5545
1 1 1 18.6195 7.17994 13.6285
2 1 1 19.7326 7.93471 13.6311
3 1 1 20.362 8.69541 14.7592
6 1 2 18.0098 6.98066 14.4835
7 1 2 18.2979 6.72147 12.7526
8 1 2 20.1818 8.06746 12.6985
5 1 4 21.692 8.27394 15.0643
9 1 2 22.0653 8.59903 15.9779
10 1 2 22.0846 7.38947 14.7273
68 4 2 5.9324 15.8424 10.2031
4 1 3 19.9683 9.87634 15.0887
54 4 1 5.49751 17.8764 9.90702
53 4 1 5.07268 16.527 10.4088
56 4 3 6.5175 18.4787 10.711
57 4 1 7.37898 19.5496 10.3002
58 4 1 6.89287 20.8106 9.88143
60 4 1 9.12504 21.6775 9.62028
62 4 1 8.65788 19.4402 10.7794
64 4 3 9.30825 17.3737 9.8987
66 4 2 4.20744 16.1269 9.92683
67 4 2 4.89544 16.5128 11.4876
63 4 1 9.21494 18.0631 10.9212
61 4 1 9.55682 20.3824 10.1873
65 4 3 10.3048 17.9676 11.7138
72 4 2 10.549 20.3939 10.5926
73 4 2 11.2638 18.0788 11.436
ITEM: TIMESTEP
1060
ITEM: NUMBER OF ATOMS
115
ITEM: BOX BOUNDS pp pp pp
-2.8628399999999999e+01 2.8628399999999999e+01
-2.8628399999999999e+01 2.8628399999999999e+01
-2.8628399999999999e+01 2.8628399999999999e+01
ITEM: ATOMS id mol type x y z
74 5 1 12.588 -12.6755 -11.8752
75 5 1 13.3251 -11.6208 -12.6137
76 5 3 13.1481 -11.518 -13.9144
77 5 3 14.5717 -11.2003 -12.0452
78 5 1 15.364 -9.99724 -12.0882
87 5 2 11.496 -12.6254 -12.0473
88 5 2 12.7796 -12.489 -10.8244
89 5 2 13.007 -13.7115 -12.0654
83 5 1 16.6269 -9.91425 -11.2899
84 5 1 17.5801 -11.0542 -11.1626
85 5 3 17.1698 -12.2855 -11.211
86 5 3 18.9205 -10.9421 -10.829
94 5 2 19.1956 -11.1518 -9.89318
79 5 1 14.5938 -8.79302 -12.1261
80 5 1 15.2736 -7.61216 -12.0136
90 5 2 13.7145 -8.83697 -12.7388
91 5 2 14.6749 -6.69506 -12.0317
81 5 1 16.4954 -7.57018 -11.2329
82 5 1 17.2629 -8.65548 -11.2742
92 5 2 17.0423 -6.58646 -11.1599
93 5 2 18.1035 -8.59973 -10.5571
97 6 3 16.4729 17.2594 -9.97699
112 6 2 17.9941 22.4564 -9.56458
110 6 2 15.3414 16.3262 -7.50629
95 6 1 14.9414 17.0743 -8.19424
108 6 2 14.2776 16.6196 -8.94941
109 6 2 14.4387 17.7962 -7.54365
96 6 1 16.0844 17.7295 -8.88056
98 6 3 17.1131 18.2756 -8.04941
99 6 1 18.0433 19.2667 -8.4035
100 6 1 17.5326 20.4615 -8.92678
101 6 1 18.4117 21.4848 -9.36762
102 6 1 19.6889 21.4894 -8.62655
103 6 1 20.2412 20.2987 -8.22615
104 6 1 19.3447 19.2965 -7.75129
105 6 1 19.9713 18.0197 -7.26172
106 6 3 19.2587 17.1987 -6.63356
107 6 3 21.3145 18.0584 -6.83271
111 6 2 16.5493 20.3706 -9.45285
114 6 2 21.1669 20.4759 -7.54925
115 6 2 21.8713 17.2669 -6.61172
113 6 2 20.3844 22.2056 -9.0475
32 3 1 15.5796 -6.42731 6.63868
45 3 2 14.662 -6.41473 6.04984
46 3 2 15.2957 -6.20707 7.6694
33 3 1 16.3926 -5.19308 6.06918
34 3 3 16.4424 -5.12505 4.78503
35 3 3 17.5221 -5.01087 6.71804
36 3 1 18.4192 -3.95772 6.49358
41 3 1 19.7916 -4.08394 6.9711
42 3 1 20.5018 -5.42915 7.01871
43 3 3 19.9797 -6.53512 6.77576
44 3 3 21.7647 -5.43071 7.55838
47 3 2 16.1245 -7.39547 6.50729
52 3 2 21.8906 -5.745 8.55083
37 3 1 17.9062 -2.63872 6.53747
38 3 1 18.7593 -1.57795 6.2102
39 3 1 20.0514 -1.68526 6.6479
40 3 1 20.6313 -2.99986 6.64977
48 3 2 16.9453 -2.47537 6.17378
49 3 2 18.3459 -0.565856 6.3682
50 3 2 20.7213 -0.919631 6.35076
51 3 2 21.6718 -3.13442 6.84537
55 4 3 5.82775 17.9172 8.64724
59 4 1 7.73423 21.6298 9.23504
69 4 2 5.85968 21.115 9.74204
71 4 2 9.79642 22.2568 9.3256
70 4 2 7.45654 22.5446 8.76094
11 2 1 -12.5178 -23.5188 12.4415
12 2 1 -11.2327 -23.1944 11.8495
13 2 3 -10.9006 -23.9377 10.9257
14 2 3 -10.2976 -22.7588 12.7455
24 2 2 -13.2869 -23.6877 11.7068
25 2 2 -12.7725 -22.6335 13.027
26 2 2 -12.4288 -24.4151 13.1907
21 2 1 -7.34637 -23.4224 13.0959
22 2 3 -8.06974 -24.3913 12.9157
23 2 3 -6.02052 -23.6261 13.5204
31 2 2 -5.93718 -23.8971 14.5165
16 2 1 -9.64437 -20.4841 12.2402
27 2 2 -10.4922 -20.2882 11.6126
20 2 1 -7.96549 -22.0288 13.1285
28 2 2 -9.1669 -18.448 12.5872
15 2 1 -9.27145 -21.8155 12.4862
17 2 1 -8.75463 -19.4669 12.4168
18 2 1 -7.70056 -19.6766 13.2372
19 2 1 -7.04492 -20.9284 13.1278
29 2 2 -7.04068 -18.8335 13.3887
30 2 2 -6.01803 -21.0033 13.5265
1 1 1 18.5531 7.10924 13.7148
2 1 1 19.6666 7.90549 13.5839
3 1 1 20.3313 8.69094 14.659
6 1 2 17.9656 7.12186 14.6755
7 1 2 18.2114 6.51646 12.9171
8 1 2 20.1436 7.9894 12.581
5 1 4 21.6152 8.2714 15.1136
9 1 2 22.1381 8.85911 15.8462
10 1 2 21.9307 7.30059 15.0094
68 4 2 5.92368 15.8139 10.4927
4 1 3 19.9495 9.76813 15.1692
54 4 1 5.60316 17.8311 9.87969
53 4 1 5.09901 16.585 10.4387
56 4 3 6.42882 18.5348 10.6845
57 4 1 7.31111 19.5941 10.4095
58 4 1 6.8247 20.8571 9.97594
60 4 1 9.08495 21.59 9.68412
62 4 1 8.65567 19.5074 10.8571
64 4 3 9.36295 17.435 9.93609
66 4 2 4.35214 16.1169 9.7149
67 4 2 4.65392 16.7253 11.4254
63 4 1 9.23546 18.1003 10.9984
61 4 1 9.54174 20.4612 10.2352
65 4 3 10.3952 18.0272 11.8258
72 4 2 10.5186 20.6026 10.6263
73 4 2 11.2062 18.4486 11.4617
ITEM: TIMESTEP
1080
ITEM: NUMBER OF ATOMS
115
ITEM: BOX BOUNDS pp pp pp
-2.8628399999999999e+01 2.8628399999999999e+01
-2.8628399999999999e+01 2.8628399999999999e+01
-2.8628399999999999e+01 2.8628399999999999e+01
ITEM: ATOMS id mol type x y z
74 5 1 12.6548 -12.6653 -11.8635
75 5 1 13.3725 -11.5864 -12.6536
76 5 3 13.237 -11.5446 -13.9502
77 5 3 14.6212 -11.2727 -12.0943
78 5 1 15.3479 -10.0281 -12.075
87 5 2 11.5541 -12.6321 -12.112
88 5 2 12.8977 -12.6339 -10.777
89 5 2 13.0786 -13.5825 -12.2513
83 5 1 16.5743 -10.007 -11.2614
84 5 1 17.6014 -11.1328 -11.3283
85 5 3 17.174 -12.3534 -11.2454
86 5 3 18.9683 -11.0065 -10.8737
94 5 2 19.2747 -11.2533 -9.94946
79 5 1 14.6201 -8.76501 -12.0725
80 5 1 15.3364 -7.50291 -12.0381
90 5 2 13.7663 -8.73835 -12.7022
91 5 2 14.6937 -6.66721 -11.9858
81 5 1 16.4791 -7.48121 -11.2376
82 5 1 17.2432 -8.71907 -11.2485
92 5 2 17.0188 -6.58009 -11.3102
93 5 2 18.2418 -8.64466 -10.8237
97 6 3 16.4447 17.2568 -10.0003
112 6 2 18.1275 22.218 -9.87919
110 6 2 15.3224 16.0687 -7.80044
95 6 1 14.9218 17.0051 -8.20863
108 6 2 14.1961 16.7674 -9.00009
109 6 2 14.46 17.6065 -7.38312
96 6 1 16.1522 17.6358 -8.83655
98 6 3 17.1425 18.2887 -8.05585
99 6 1 18.0506 19.2454 -8.45314
100 6 1 17.4696 20.4692 -8.88335
101 6 1 18.4118 21.3554 -9.32078
102 6 1 19.6456 21.4612 -8.69433
103 6 1 20.1373 20.3183 -8.18336
104 6 1 19.2722 19.3041 -7.66957
105 6 1 19.9661 18.0271 -7.18111
106 6 3 19.2483 17.0988 -6.64094
107 6 3 21.2926 18.1082 -6.76631
111 6 2 16.58 20.3741 -9.49734
114 6 2 21.1885 20.2854 -7.91404
115 6 2 21.8371 17.2973 -6.48638
113 6 2 20.3291 22.2052 -9.14946
32 3 1 15.6733 -6.44629 6.58066
45 3 2 14.6217 -6.55814 6.16953
46 3 2 15.7244 -6.291 7.70562
33 3 1 16.3844 -5.28197 6.06867
34 3 3 16.4261 -5.25765 4.7854
35 3 3 17.5595 -4.97312 6.76785
36 3 1 18.4553 -3.94872 6.45463
41 3 1 19.8264 -4.04523 7.02128
42 3 1 20.5831 -5.38582 6.93397
43 3 3 19.9628 -6.47372 6.79735
44 3 3 21.718 -5.48267 7.61069
47 3 2 16.2647 -7.25938 6.2976
52 3 2 21.7962 -5.55478 8.61322
37 3 1 17.8596 -2.66317 6.511
38 3 1 18.7682 -1.60801 6.30762
39 3 1 20.1226 -1.70599 6.64181
40 3 1 20.6359 -2.99055 6.57391
48 3 2 16.9278 -2.49843 6.01591
49 3 2 18.3454 -0.56088 6.23539
50 3 2 20.8316 -0.935117 6.35479
51 3 2 21.735 -3.07994 6.83416
55 4 3 5.89491 17.8102 8.64529
59 4 1 7.69658 21.6145 9.29741
69 4 2 5.80018 20.9546 9.59933
71 4 2 9.67136 22.2696 9.15897
70 4 2 7.28543 22.4602 8.7596
11 2 1 -12.5951 -23.4952 12.518
12 2 1 -11.245 -23.1938 11.847
13 2 3 -10.979 -23.9234 10.8902
14 2 3 -10.2415 -22.7451 12.7855
24 2 2 -13.4833 -23.8149 11.8185
25 2 2 -12.982 -22.6706 13.0999
26 2 2 -12.4834 -24.2873 13.2368
21 2 1 -7.34192 -23.3989 13.1011
22 2 3 -7.97976 -24.398 12.8618
23 2 3 -6.07041 -23.5914 13.7017
31 2 2 -5.92787 -24.2117 14.4304
16 2 1 -9.65694 -20.5976 12.2462
27 2 2 -10.4803 -20.4182 11.6067
20 2 1 -7.95899 -22.0829 13.2014
28 2 2 -9.2012 -18.5174 12.3805
15 2 1 -9.16287 -21.9119 12.4531
17 2 1 -8.76961 -19.5001 12.4032
18 2 1 -7.58844 -19.659 13.1879
19 2 1 -7.05982 -20.9433 13.221
29 2 2 -6.90862 -18.8362 13.3859
30 2 2 -6.26202 -20.9444 13.881
1 1 1 18.4553 7.20322 13.802
2 1 1 19.5614 7.90439 13.6122
3 1 1 20.2899 8.6918 14.6187
6 1 2 17.9716 7.24967 14.8022
7 1 2 17.9166 6.67937 13.0211
8 1 2 19.8735 7.99834 12.4825
5 1 4 21.6199 8.19117 15.0298
9 1 2 22.2813 8.83844 15.4527
10 1 2 21.7099 7.20179 15.1187
68 4 2 5.93812 15.7022 10.7437
4 1 3 19.9001 9.72046 15.1738
54 4 1 5.67999 17.7401 9.87488
53 4 1 5.14613 16.474 10.5371
56 4 3 6.41042 18.6494 10.7383
57 4 1 7.307 19.6431 10.3543
58 4 1 6.78278 20.8993 10.0572
60 4 1 8.9966 21.6621 9.80107
62 4 1 8.66947 19.5695 10.9265
64 4 3 9.39808 17.4995 10.0631
66 4 2 4.39643 16.0185 9.88418
67 4 2 4.6736 16.8766 11.4702
63 4 1 9.28749 18.28 11.0548
61 4 1 9.60671 20.3828 10.2373
65 4 3 10.4103 18.0644 11.8406
72 4 2 10.6247 20.4531 10.588
73 4 2 11.4054 18.4641 11.6374
ITEM: TIMESTEP
1100
ITEM: NUMBER OF ATOMS
115
ITEM: BOX BOUNDS pp pp pp
-2.8628399999999999e+01 2.8628399999999999e+01
-2.8628399999999999e+01 2.8628399999999999e+01
-2.8628399999999999e+01 2.8628399999999999e+01
ITEM: ATOMS id mol type x y z
74 5 1 12.6858 -12.6636 -11.9939
75 5 1 13.4284 -11.5835 -12.6815
76 5 3 13.2761 -11.5612 -13.9414
77 5 3 14.5987 -11.1555 -12.074
78 5 1 15.3898 -9.95716 -12.134
87 5 2 11.6463 -12.6785 -12.3477
88 5 2 12.7248 -12.3436 -10.9619
89 5 2 13.1767 -13.6694 -12.1292
83 5 1 16.6135 -10.0194 -11.3594
84 5 1 17.6147 -11.1705 -11.4088
85 5 3 17.1876 -12.3766 -11.3307
86 5 3 18.9124 -11.0869 -10.9221
94 5 2 19.1488 -10.9474 -9.93605
79 5 1 14.6309 -8.73116 -12.1375
80 5 1 15.3538 -7.50143 -12.0505
90 5 2 13.7013 -8.72335 -12.7843
91 5 2 14.7844 -6.56812 -12.0302
81 5 1 16.5064 -7.54486 -11.2549
82 5 1 17.2782 -8.76918 -11.2839
92 5 2 17.0233 -6.60928 -11.1615
93 5 2 18.1173 -8.69622 -10.6372
97 6 3 16.5188 17.1913 -9.92446
112 6 2 17.9042 22.4105 -9.54323
110 6 2 15.3505 15.918 -7.84053
95 6 1 14.9993 16.9732 -8.18159
108 6 2 14.2265 16.8789 -8.94122
109 6 2 14.7043 17.6099 -7.36828
96 6 1 16.1376 17.7088 -8.83143
98 6 3 17.1609 18.1586 -8.00495
99 6 1 18.0096 19.1792 -8.37203
100 6 1 17.4845 20.453 -8.87998
101 6 1 18.3222 21.3972 -9.39936
102 6 1 19.5804 21.4207 -8.7599
103 6 1 20.1554 20.2131 -8.17522
104 6 1 19.2364 19.3289 -7.67749
105 6 1 19.9846 18.0602 -7.24153
106 6 3 19.2853 17.109 -6.73316
107 6 3 21.2519 18.1653 -6.6651
111 6 2 16.575 20.353 -9.41092
114 6 2 21.0427 20.3212 -7.5722
115 6 2 21.7767 17.2996 -6.58573
113 6 2 20.2576 22.2345 -9.15377
32 3 1 15.683 -6.49632 6.57739
45 3 2 14.6802 -6.64038 6.06264
46 3 2 15.5312 -6.45116 7.62224
33 3 1 16.3642 -5.32386 6.04956
34 3 3 16.4278 -5.29888 4.77407
35 3 3 17.585 -4.94074 6.72391
36 3 1 18.4896 -3.91535 6.49778
41 3 1 19.8396 -4.08513 6.92411
42 3 1 20.6063 -5.40361 6.87238
43 3 3 19.9419 -6.47505 6.82165
44 3 3 21.7189 -5.57489 7.70828
47 3 2 16.3555 -7.34256 6.36282
52 3 2 21.646 -5.68242 8.70166
37 3 1 17.9623 -2.59335 6.52255
38 3 1 18.834 -1.57871 6.24972
39 3 1 20.14 -1.65352 6.72161
40 3 1 20.6755 -2.93226 6.67044
48 3 2 16.9343 -2.34913 6.23024
49 3 2 18.3844 -0.603147 6.24695
50 3 2 20.811 -0.901188 6.30491
51 3 2 21.6833 -3.11727 6.77724
55 4 3 5.85828 17.7349 8.64821
59 4 1 7.70024 21.7194 9.36753
69 4 2 5.69172 20.8984 9.48585
71 4 2 9.76556 22.4084 9.34965
70 4 2 7.30496 22.7112 9.11597
11 2 1 -12.6203 -23.5619 12.582
12 2 1 -11.3154 -23.2256 11.918
13 2 3 -10.9252 -23.8754 10.9445
14 2 3 -10.2814 -22.7476 12.7592
24 2 2 -13.3068 -23.6655 11.7275
25 2 2 -12.9804 -22.668 13.1782
26 2 2 -12.5623 -24.4253 13.1895
21 2 1 -7.35738 -23.4522 13.2083
22 2 3 -7.88339 -24.4904 12.6922
23 2 3 -6.11487 -23.6152 13.8196
31 2 2 -5.92733 -24.3845 14.5226
16 2 1 -9.63143 -20.4758 12.2935
27 2 2 -10.3579 -20.3515 11.5239
20 2 1 -8.02449 -22.0551 13.1964
28 2 2 -9.11917 -18.4432 12.3563
15 2 1 -9.24142 -21.8568 12.4698
17 2 1 -8.73478 -19.4287 12.34
18 2 1 -7.63123 -19.5904 13.1616
19 2 1 -7.15757 -20.9234 13.3983
29 2 2 -6.8803 -18.8211 12.9818
30 2 2 -6.15812 -21.0343 13.9708
1 1 1 18.4903 7.28822 13.8987
2 1 1 19.5246 8.02942 13.5715
3 1 1 20.3486 8.65139 14.6097
6 1 2 18.1195 7.1151 14.9283
7 1 2 17.8514 6.89116 13.1151
8 1 2 19.6895 8.13724 12.5405
5 1 4 21.6805 8.11807 14.9708
9 1 2 22.4802 8.70131 15.1078
10 1 2 21.7261 7.09879 15.3833
68 4 2 5.95826 15.7729 10.4627
4 1 3 19.9597 9.72575 15.1112
54 4 1 5.72568 17.7809 9.91698
53 4 1 5.19092 16.5265 10.5188
56 4 3 6.47741 18.6012 10.7752
57 4 1 7.34961 19.576 10.3487
58 4 1 6.78245 20.8426 9.98059
60 4 1 9.02959 21.7724 9.7983
62 4 1 8.66235 19.6088 10.8981
64 4 3 9.43107 17.5387 10.0509
66 4 2 4.32475 16.1397 9.95908
67 4 2 4.87985 16.6243 11.6442
63 4 1 9.30398 18.2052 11.1629
61 4 1 9.50408 20.5538 10.285
65 4 3 10.4174 18.0713 11.9403
72 4 2 10.613 20.5924 10.645
73 4 2 11.2842 18.5104 11.659
ITEM: TIMESTEP
1120
ITEM: NUMBER OF ATOMS
115
ITEM: BOX BOUNDS pp pp pp
-2.8628399999999999e+01 2.8628399999999999e+01
-2.8628399999999999e+01 2.8628399999999999e+01
-2.8628399999999999e+01 2.8628399999999999e+01
ITEM: ATOMS id mol type x y z
74 5 1 12.6665 -12.6868 -12.0678
75 5 1 13.434 -11.5088 -12.7306
76 5 3 13.372 -11.5009 -14.0174
77 5 3 14.6091 -11.0931 -12.0384
78 5 1 15.3702 -9.94959 -12.2153
87 5 2 11.6307 -12.7447 -12.4458
88 5 2 12.6692 -12.3677 -11.0129
89 5 2 13.2083 -13.6757 -12.2281
83 5 1 16.6191 -9.96202 -11.4347
84 5 1 17.5705 -11.1664 -11.5219
85 5 3 17.0918 -12.3653 -11.4117
86 5 3 18.8478 -11.0497 -10.8812
94 5 2 18.9491 -10.6224 -9.94459
79 5 1 14.6878 -8.73481 -12.1579
80 5 1 15.4049 -7.55175 -12.0968
90 5 2 13.7366 -8.75664 -12.5906
91 5 2 14.7471 -6.71815 -12.0218
81 5 1 16.4774 -7.64397 -11.2706
82 5 1 17.2483 -8.74233 -11.2529
92 5 2 16.9857 -6.6981 -11.131
93 5 2 18.1046 -8.62026 -10.6366
97 6 3 16.5421 17.1551 -9.92762
112 6 2 17.9207 22.3832 -9.63122
110 6 2 15.4834 16.0568 -7.6954
95 6 1 15.0177 17.0403 -8.14138
108 6 2 14.1505 16.8177 -8.78826
109 6 2 14.6294 17.7666 -7.32153
96 6 1 16.0754 17.7334 -8.86807
98 6 3 17.0873 18.1859 -7.99806
99 6 1 18.0136 19.1368 -8.3807
100 6 1 17.4514 20.3273 -8.88986
101 6 1 18.3003 21.4045 -9.28243
102 6 1 19.6254 21.4755 -8.84757
103 6 1 20.1049 20.3355 -8.22314
104 6 1 19.3043 19.2902 -7.6912
105 6 1 20.0335 18.0284 -7.26493
106 6 3 19.3407 17.0687 -6.7196
107 6 3 21.1509 18.1549 -6.57213
111 6 2 16.5036 20.2967 -9.37344
114 6 2 21.0079 20.6581 -7.72103
115 6 2 21.7955 17.4187 -6.45655
113 6 2 20.1993 22.3169 -9.28092
32 3 1 15.5974 -6.47624 6.61936
45 3 2 14.5757 -6.59799 6.20051
46 3 2 15.5341 -6.32626 7.70621
33 3 1 16.3717 -5.32566 5.95315
34 3 3 16.519 -5.25233 4.68854
35 3 3 17.531 -4.9592 6.67046
36 3 1 18.5077 -3.93477 6.38742
41 3 1 19.8148 -4.06908 7.00931
42 3 1 20.5547 -5.41882 6.93524
43 3 3 19.9307 -6.51178 6.76845
44 3 3 21.6711 -5.51392 7.72571
47 3 2 16.0692 -7.45664 6.35983
52 3 2 21.7179 -5.88176 8.64644
37 3 1 18.0109 -2.59923 6.5545
38 3 1 18.9068 -1.54364 6.24178
39 3 1 20.1707 -1.67302 6.75437
40 3 1 20.7162 -3.00865 6.71382
48 3 2 17.009 -2.42117 6.23043
49 3 2 18.5 -0.547777 6.20804
50 3 2 20.9288 -0.927951 6.62386
51 3 2 21.6737 -3.16359 7.19874
55 4 3 5.80681 17.8085 8.65712
59 4 1 7.58453 21.8268 9.37969
69 4 2 5.86267 20.7966 9.36506
71 4 2 9.57605 22.5458 9.38142
70 4 2 7.14131 22.7626 9.16226
11 2 1 -12.6454 -23.5642 12.5606
12 2 1 -11.3459 -23.1708 11.922
13 2 3 -10.9044 -23.8637 11.0015
14 2 3 -10.2736 -22.6848 12.7336
24 2 2 -13.3801 -23.752 11.7283
25 2 2 -13.0046 -22.7399 13.2301
26 2 2 -12.4824 -24.502 13.2147
21 2 1 -7.33171 -23.4527 13.223
22 2 3 -7.79256 -24.4298 12.5604
23 2 3 -6.14398 -23.5981 13.8632
31 2 2 -5.99422 -24.4683 14.4022
16 2 1 -9.63618 -20.4819 12.274
27 2 2 -10.5957 -20.3764 11.7496
20 2 1 -8.05047 -22.0776 13.2493
28 2 2 -9.12673 -18.3617 12.4006
15 2 1 -9.2305 -21.8033 12.4238
17 2 1 -8.77626 -19.379 12.3533
18 2 1 -7.66183 -19.5789 13.1483
19 2 1 -7.24872 -20.9369 13.3763
29 2 2 -6.89823 -18.8373 13.0643
30 2 2 -6.39556 -21.0333 14.0594
1 1 1 18.5343 7.33526 13.8062
2 1 1 19.5963 8.07648 13.462
3 1 1 20.4205 8.68447 14.4817
6 1 2 18.3493 7.14937 14.8019
7 1 2 17.9178 6.95788 13.0156
8 1 2 19.7729 8.25732 12.395
5 1 4 21.6613 8.04019 14.8467
9 1 2 22.6247 8.35489 14.6107
10 1 2 21.6731 7.29593 15.5078
68 4 2 6.0246 15.8006 10.4754
4 1 3 19.9819 9.72227 14.9838
54 4 1 5.60625 17.824 9.91231
53 4 1 5.20675 16.5058 10.5783
56 4 3 6.52667 18.5008 10.6984
57 4 1 7.35014 19.5712 10.3481
58 4 1 6.756 20.8279 9.92098
60 4 1 8.90349 21.8526 9.85615
62 4 1 8.65339 19.5821 10.8769
64 4 3 9.42909 17.463 10.0672
66 4 2 4.24573 16.112 10.1171
67 4 2 5.09744 16.7206 11.6116
63 4 1 9.35174 18.2938 11.0506
61 4 1 9.52493 20.6655 10.3611
65 4 3 10.2887 18.1844 12.009
72 4 2 10.5634 20.7262 10.6512
73 4 2 11.2543 18.3382 11.9041
ITEM: TIMESTEP
1140
ITEM: NUMBER OF ATOMS
115
ITEM: BOX BOUNDS pp pp pp
-2.8628399999999999e+01 2.8628399999999999e+01
-2.8628399999999999e+01 2.8628399999999999e+01
-2.8628399999999999e+01 2.8628399999999999e+01
ITEM: ATOMS id mol type x y z
74 5 1 12.7033 -12.5743 -12.1069
75 5 1 13.4049 -11.4646 -12.8217
76 5 3 13.4101 -11.4333 -14.0678
77 5 3 14.6108 -11.1958 -12.1924
78 5 1 15.3871 -9.98978 -12.1913
87 5 2 11.6751 -12.6772 -12.5521
88 5 2 12.6257 -12.4212 -11.021
89 5 2 13.2938 -13.495 -12.3844
83 5 1 16.6597 -10.0163 -11.4369
84 5 1 17.602 -11.2076 -11.4713
85 5 3 17.0442 -12.3139 -11.3521
86 5 3 18.7877 -11.1397 -10.8797
94 5 2 18.7651 -11.1007 -9.88667
79 5 1 14.6223 -8.72535 -12.0889
80 5 1 15.3462 -7.56071 -12.0744
90 5 2 13.7126 -8.75535 -12.6541
91 5 2 14.6903 -6.70018 -12.0676
81 5 1 16.5332 -7.52388 -11.298
82 5 1 17.3213 -8.74143 -11.3703
92 5 2 16.969 -6.54736 -11.0983
93 5 2 18.1426 -8.7799 -10.5817
97 6 3 16.5314 17.0731 -9.85855
112 6 2 17.7349 22.3526 -9.53266
110 6 2 15.3146 16.0911 -7.63504
95 6 1 14.9617 16.9959 -8.142
108 6 2 14.3255 16.7172 -8.92528
109 6 2 14.5217 17.7474 -7.47999
96 6 1 16.1295 17.654 -8.82562
98 6 3 17.0751 18.2096 -8.01508
99 6 1 18.0577 19.1776 -8.47933
100 6 1 17.4326 20.3561 -8.86222
101 6 1 18.1599 21.3868 -9.32702
102 6 1 19.5329 21.4663 -8.78274
103 6 1 20.1564 20.2992 -8.14867
104 6 1 19.3255 19.2136 -7.70696
105 6 1 20.0333 17.9794 -7.26174
106 6 3 19.2977 17.0532 -6.73005
107 6 3 21.1599 18.1449 -6.43166
111 6 2 16.4006 20.3111 -9.36009
114 6 2 21.1093 20.4888 -7.68886
115 6 2 21.9221 17.338 -6.26861
113 6 2 20.1224 22.0909 -9.36186
32 3 1 15.5965 -6.39227 6.50218
45 3 2 14.6803 -6.42194 5.91434
46 3 2 15.3868 -6.14767 7.56765
33 3 1 16.3762 -5.30229 5.95978
34 3 3 16.5487 -5.28524 4.7
35 3 3 17.5288 -4.9042 6.66638
36 3 1 18.4776 -3.85815 6.47646
41 3 1 19.8349 -4.09778 6.94134
42 3 1 20.5184 -5.43517 6.9564
43 3 3 19.9491 -6.51176 6.71061
44 3 3 21.6896 -5.52814 7.70695
47 3 2 16.0806 -7.35773 6.35166
52 3 2 21.5608 -5.92148 8.70513
37 3 1 17.9491 -2.55831 6.46321
38 3 1 18.8941 -1.57284 6.29809
39 3 1 20.1981 -1.71489 6.77545
40 3 1 20.7409 -2.96807 6.7806
48 3 2 16.9845 -2.38032 6.00091
49 3 2 18.4885 -0.631055 6.43459
50 3 2 20.9301 -1.01679 6.53183
51 3 2 21.8283 -3.09949 7.05596
55 4 3 5.80636 17.8036 8.68154
59 4 1 7.53672 21.8161 9.36319
69 4 2 5.72096 20.7465 9.49591
71 4 2 9.51714 22.7185 9.57251
70 4 2 6.99063 22.7863 9.15362
11 2 1 -12.6238 -23.4929 12.5336
12 2 1 -11.2716 -23.2341 11.9293
13 2 3 -10.9254 -23.9808 10.981
14 2 3 -10.3141 -22.7399 12.7779
24 2 2 -13.3746 -23.7847 11.7844
25 2 2 -13.0401 -22.6488 13.093
26 2 2 -12.4213 -24.3463 13.2077
21 2 1 -7.37929 -23.4056 13.2558
22 2 3 -7.83097 -24.3666 12.5234
23 2 3 -6.18128 -23.6039 13.981
31 2 2 -5.91464 -24.4794 14.2417
16 2 1 -9.72602 -20.5513 12.243
27 2 2 -10.4938 -20.4508 11.4368
20 2 1 -8.06676 -22.0461 13.2889
28 2 2 -9.17041 -18.4895 12.3875
15 2 1 -9.22896 -21.8736 12.41
17 2 1 -8.83346 -19.5085 12.4296
18 2 1 -7.67242 -19.6854 13.1678
19 2 1 -7.17504 -20.9788 13.3897
29 2 2 -6.94723 -18.9104 13.0946
30 2 2 -6.37727 -21.0511 14.0373
1 1 1 18.6354 7.3028 13.7108
2 1 1 19.595 8.13145 13.3696
3 1 1 20.5046 8.74449 14.3582
6 1 2 18.6061 7.05174 14.759
7 1 2 17.884 6.96025 13.002
8 1 2 19.6969 8.36691 12.2995
5 1 4 21.6144 8.00251 14.8754
9 1 2 22.5604 8.51882 14.912
10 1 2 21.5411 7.08103 15.2659
68 4 2 6.10606 15.8022 10.5995
4 1 3 20.0214 9.71116 14.9936
54 4 1 5.54227 17.8187 9.92907
53 4 1 5.22275 16.5029 10.5715
56 4 3 6.57236 18.4701 10.6017
57 4 1 7.35076 19.612 10.2507
58 4 1 6.69833 20.7906 9.88624
60 4 1 8.81929 21.944 9.93019
62 4 1 8.6377 19.6436 10.817
64 4 3 9.4268 17.483 10.1086
66 4 2 4.33815 15.9931 10.1037
67 4 2 5.01282 16.7142 11.6317
63 4 1 9.29833 18.3616 11.0447
61 4 1 9.44512 20.7107 10.3454
65 4 3 10.2254 18.2195 12.0957
72 4 2 10.4165 20.8182 10.7786
73 4 2 11.2075 18.3746 11.9066
ITEM: TIMESTEP
1160
ITEM: NUMBER OF ATOMS
115
ITEM: BOX BOUNDS pp pp pp
-2.8628399999999999e+01 2.8628399999999999e+01
-2.8628399999999999e+01 2.8628399999999999e+01
-2.8628399999999999e+01 2.8628399999999999e+01
ITEM: ATOMS id mol type x y z
74 5 1 12.6544 -12.5622 -12.1772
75 5 1 13.379 -11.4363 -12.7816
76 5 3 13.331 -11.3264 -14.0474
77 5 3 14.6589 -11.1771 -12.1994
78 5 1 15.3749 -9.99296 -12.1764
87 5 2 11.6321 -12.574 -12.5538
88 5 2 12.7153 -12.4711 -11.0568
89 5 2 13.2002 -13.5035 -12.5136
83 5 1 16.587 -9.94685 -11.4355
84 5 1 17.4961 -11.1879 -11.4157
85 5 3 17.0417 -12.3546 -11.3239
86 5 3 18.8383 -11.1571 -10.8513
94 5 2 19.0213 -11.1673 -9.90569
79 5 1 14.618 -8.69947 -12.0028
80 5 1 15.3019 -7.48301 -11.9562
90 5 2 13.6367 -8.6681 -12.5609
91 5 2 14.7162 -6.61304 -11.9154
81 5 1 16.5751 -7.49019 -11.3954
82 5 1 17.3347 -8.69688 -11.396
92 5 2 17.1838 -6.57399 -11.4902
93 5 2 18.3214 -8.70558 -10.944
97 6 3 16.4219 17.0422 -9.81294
112 6 2 17.8947 22.3065 -9.55954
110 6 2 15.2306 16.0952 -7.57283
95 6 1 14.9054 17.0343 -8.15976
108 6 2 14.2061 16.6843 -9.00766
109 6 2 14.3904 17.6775 -7.47066
96 6 1 16.1087 17.6607 -8.80382
98 6 3 17.1337 18.1628 -7.9851
99 6 1 18.0369 19.097 -8.45156
100 6 1 17.4271 20.3339 -8.86111
101 6 1 18.2745 21.2953 -9.32964
102 6 1 19.5211 21.3774 -8.73929
103 6 1 20.1228 20.2793 -8.19168
104 6 1 19.2944 19.1939 -7.79817
105 6 1 20.0231 18.0318 -7.2421
106 6 3 19.3145 17.1262 -6.76283
107 6 3 21.1678 18.1113 -6.37783
111 6 2 16.526 20.2697 -9.37937
114 6 2 20.9998 20.5409 -7.54003
115 6 2 21.7318 17.3819 -6.20147
113 6 2 20.0972 22.331 -8.92619
32 3 1 15.5411 -6.4333 6.39279
45 3 2 14.6242 -6.41187 5.80509
46 3 2 15.2622 -6.35249 7.46457
33 3 1 16.4116 -5.28194 5.95483
34 3 3 16.6232 -5.27037 4.70559
35 3 3 17.5287 -4.93772 6.74149
36 3 1 18.4731 -3.86496 6.47404
41 3 1 19.8219 -4.06424 6.98107
42 3 1 20.5407 -5.39276 6.93451
43 3 3 19.9978 -6.47567 6.67864
44 3 3 21.6781 -5.58278 7.6926
47 3 2 16.1281 -7.33707 6.20432
52 3 2 21.4173 -5.56912 8.67787
37 3 1 18.0128 -2.53611 6.58112
38 3 1 18.8768 -1.47919 6.38701
39 3 1 20.1987 -1.64386 6.81354
40 3 1 20.7471 -2.9324 6.78849
48 3 2 17.129 -2.35314 6.05082
49 3 2 18.506 -0.477889 6.69719
50 3 2 20.9532 -0.837096 6.67385
51 3 2 21.7301 -3.04189 7.21362
55 4 3 5.7009 17.7076 8.69087
59 4 1 7.54446 21.801 9.3687
69 4 2 5.64086 20.7896 9.44293
71 4 2 9.40918 22.7147 9.51296
70 4 2 7.09031 22.7299 9.03069
11 2 1 -12.6167 -23.4058 12.5382
12 2 1 -11.2851 -23.2372 11.8909
13 2 3 -10.965 -24.0251 10.9366
14 2 3 -10.2282 -22.8442 12.7431
24 2 2 -13.3722 -23.6535 11.6776
25 2 2 -12.9349 -22.5177 13.07
26 2 2 -12.621 -24.2414 13.2482
21 2 1 -7.4281 -23.3885 13.3061
22 2 3 -7.83244 -24.3635 12.5907
23 2 3 -6.23761 -23.5878 14.0696
31 2 2 -6.04601 -24.491 14.5701
16 2 1 -9.67639 -20.569 12.2986
27 2 2 -10.4624 -20.3966 11.6514
20 2 1 -8.0513 -22.0324 13.2816
28 2 2 -9.23906 -18.4938 12.2523
15 2 1 -9.22547 -21.8836 12.6053
17 2 1 -8.81854 -19.5017 12.3958
18 2 1 -7.7218 -19.7045 13.1784
19 2 1 -7.13723 -20.9577 13.3345
29 2 2 -7.07215 -18.8268 13.2348
30 2 2 -6.32227 -20.973 14.1215
1 1 1 18.7077 7.30824 13.5928
2 1 1 19.5887 8.18423 13.2973
3 1 1 20.5104 8.84915 14.2559
6 1 2 18.5382 7.00691 14.6413
7 1 2 18.1299 6.76043 12.8532
8 1 2 19.7454 8.38226 12.2921
5 1 4 21.6177 7.99205 14.7824
9 1 2 22.2719 8.43645 15.5009
10 1 2 21.2725 7.03594 15.0817
68 4 2 6.0001 15.7232 10.4085
4 1 3 20.0466 9.66226 15.0178
54 4 1 5.62643 17.7832 9.96429
53 4 1 5.15081 16.4892 10.5482
56 4 3 6.56243 18.4853 10.6552
57 4 1 7.37616 19.6108 10.1635
58 4 1 6.61329 20.8253 9.93181
60 4 1 8.82808 21.9302 9.94843
62 4 1 8.66095 19.6745 10.7909
64 4 3 9.41743 17.5561 10.1171
66 4 2 4.31235 16.21 9.88883
67 4 2 4.85002 16.5173 11.5745
63 4 1 9.3001 18.3578 11.0773
61 4 1 9.48068 20.7664 10.3291
65 4 3 10.1765 18.2378 12.1636
72 4 2 10.4729 20.7852 10.7431
73 4 2 10.9794 18.8721 12.2549
ITEM: TIMESTEP
1180
ITEM: NUMBER OF ATOMS
115
ITEM: BOX BOUNDS pp pp pp
-2.8628399999999999e+01 2.8628399999999999e+01
-2.8628399999999999e+01 2.8628399999999999e+01
-2.8628399999999999e+01 2.8628399999999999e+01
ITEM: ATOMS id mol type x y z
74 5 1 12.6728 -12.6144 -12.1702
75 5 1 13.3738 -11.4309 -12.7507
76 5 3 13.2041 -11.2509 -13.9803
77 5 3 14.6199 -11.1884 -12.1866
78 5 1 15.3426 -9.95286 -12.1432
87 5 2 11.6013 -12.6725 -12.6303
88 5 2 12.6481 -12.4354 -11.0762
89 5 2 13.1528 -13.522 -12.3973
83 5 1 16.5713 -9.97411 -11.3825
84 5 1 17.4465 -11.2165 -11.422
85 5 3 17.071 -12.4251 -11.3582
86 5 3 18.664 -11.1891 -10.7919
94 5 2 18.8163 -11.1106 -9.75056
79 5 1 14.5642 -8.73812 -11.8891
80 5 1 15.2899 -7.50493 -11.9403
90 5 2 13.5771 -8.70194 -12.3631
91 5 2 14.6917 -6.58528 -11.7205
81 5 1 16.5286 -7.49818 -11.3993
82 5 1 17.2881 -8.69284 -11.4642
92 5 2 17.0618 -6.59159 -11.5783
93 5 2 18.2496 -8.70775 -10.9967
97 6 3 16.3469 16.9957 -9.84813
112 6 2 17.9373 22.1223 -9.9016
110 6 2 15.1125 16.0804 -7.75051
95 6 1 14.8485 17.0876 -8.187
108 6 2 13.938 17.0145 -8.85841
109 6 2 14.5091 17.7263 -7.3124
96 6 1 16.1038 17.6583 -8.83544
98 6 3 17.1215 18.0349 -7.99754
99 6 1 18.0843 19.0199 -8.4603
100 6 1 17.5155 20.2353 -8.88269
101 6 1 18.3455 21.2614 -9.42947
102 6 1 19.492 21.4876 -8.6619
103 6 1 20.1503 20.2951 -8.25966
104 6 1 19.3577 19.2194 -7.76352
105 6 1 20.0855 17.97 -7.1936
106 6 3 19.3288 17.0297 -6.82187
107 6 3 21.2279 18.2192 -6.44678
111 6 2 16.6394 20.0725 -9.48514
114 6 2 21.0197 20.5312 -7.69851
115 6 2 21.7723 17.4254 -6.27267
113 6 2 20.2475 22.1901 -9.06254
32 3 1 15.4627 -6.43807 6.42682
45 3 2 14.5409 -6.42776 5.82057
46 3 2 15.1614 -6.26125 7.47216
33 3 1 16.4819 -5.35138 5.99586
34 3 3 16.5784 -5.21223 4.71745
35 3 3 17.6342 -4.8918 6.7238
36 3 1 18.5637 -3.86726 6.46137
41 3 1 19.8618 -4.055 6.96904
42 3 1 20.588 -5.36952 6.84739
43 3 3 19.9418 -6.47344 6.61604
44 3 3 21.7275 -5.51836 7.68767
47 3 2 16.0158 -7.41268 6.31175
52 3 2 21.6 -5.54308 8.63741
37 3 1 18.0228 -2.52626 6.50686
38 3 1 18.9107 -1.37079 6.49892
39 3 1 20.2386 -1.62589 6.80389
40 3 1 20.7431 -2.90787 6.78793
48 3 2 16.969 -2.32407 6.57107
49 3 2 18.6238 -0.385518 6.74686
50 3 2 20.9901 -0.907432 6.69591
51 3 2 21.7117 -3.01644 7.21399
55 4 3 5.72159 17.6766 8.6989
59 4 1 7.59443 21.811 9.36781
69 4 2 5.81726 20.7757 9.33859
71 4 2 9.48838 22.6806 9.58404
70 4 2 7.16257 22.6854 8.96054
11 2 1 -12.6907 -23.4444 12.5105
12 2 1 -11.3236 -23.2466 11.8864
13 2 3 -10.975 -24.051 10.959
14 2 3 -10.2549 -22.9203 12.81
24 2 2 -13.4175 -23.5571 11.7387
25 2 2 -12.8655 -22.5785 13.1511
26 2 2 -12.6945 -24.3613 13.1668
21 2 1 -7.32952 -23.457 13.3895
22 2 3 -7.77932 -24.3738 12.6603
23 2 3 -6.26878 -23.6575 14.2022
31 2 2 -6.05263 -24.5837 14.5938
16 2 1 -9.69214 -20.5779 12.2806
27 2 2 -10.5097 -20.4108 11.6582
20 2 1 -7.99319 -22.1033 13.2461
28 2 2 -9.21402 -18.5138 12.1356
15 2 1 -9.22413 -22.0134 12.4778
17 2 1 -8.73716 -19.4851 12.2407
18 2 1 -7.68414 -19.6104 13.1829
19 2 1 -7.143 -20.9189 13.1992
29 2 2 -6.96812 -18.8312 13.3525
30 2 2 -6.15988 -20.9001 13.5492
1 1 1 18.73 7.28749 13.4832
2 1 1 19.6745 8.17564 13.194
3 1 1 20.4576 8.8373 14.2729
6 1 2 18.3319 7.17224 14.455
7 1 2 18.1158 6.89838 12.6919
8 1 2 19.8533 8.55799 12.1713
5 1 4 21.5318 8.03986 14.772
9 1 2 22.4534 8.54648 14.8319
10 1 2 21.3317 7.05648 15.1497
68 4 2 5.92653 15.7277 10.3946
4 1 3 20.0707 9.70795 15.0602
54 4 1 5.62599 17.7489 9.9387
53 4 1 5.1014 16.5023 10.5567
56 4 3 6.53622 18.5232 10.6271
57 4 1 7.32265 19.6162 10.1701
58 4 1 6.72173 20.8191 9.866
60 4 1 8.88398 21.883 9.94171
62 4 1 8.59041 19.7361 10.7986
64 4 3 9.44093 17.6001 10.1694
66 4 2 4.14167 16.1124 10.0522
67 4 2 4.93691 16.7048 11.642
63 4 1 9.27862 18.3867 11.1239
61 4 1 9.5166 20.6774 10.2431
65 4 3 10.1121 18.2594 12.225
72 4 2 10.4572 20.7264 10.8059
73 4 2 11.0127 18.6959 12.3001
ITEM: TIMESTEP
1200
ITEM: NUMBER OF ATOMS
115
ITEM: BOX BOUNDS pp pp pp
-2.8628399999999999e+01 2.8628399999999999e+01
-2.8628399999999999e+01 2.8628399999999999e+01
-2.8628399999999999e+01 2.8628399999999999e+01
ITEM: ATOMS id mol type x y z
74 5 1 12.7198 -12.6038 -12.1879
75 5 1 13.3679 -11.3813 -12.685
76 5 3 13.1778 -11.2113 -13.9549
77 5 3 14.5911 -11.1454 -12.0888
78 5 1 15.3026 -9.93879 -12.1213
87 5 2 11.6819 -12.4983 -12.5513
88 5 2 12.7539 -12.5798 -11.1046
89 5 2 13.1431 -13.5744 -12.5294
83 5 1 16.6008 -10.0002 -11.4536
84 5 1 17.5066 -11.2431 -11.4516
85 5 3 16.9984 -12.407 -11.4151
86 5 3 18.5921 -11.2033 -10.6946
94 5 2 18.322 -11.1601 -9.6998
79 5 1 14.5155 -8.7989 -11.9186
80 5 1 15.1567 -7.58648 -11.9135
90 5 2 13.4841 -8.7549 -12.2358
91 5 2 14.5901 -6.73276 -11.726
81 5 1 16.4964 -7.58942 -11.3567
82 5 1 17.2236 -8.73583 -11.5483
92 5 2 17.0239 -6.6713 -11.284
93 5 2 18.2577 -8.66016 -11.1952
97 6 3 16.3594 16.9438 -9.90141
112 6 2 17.9211 22.129 -9.69025
110 6 2 14.9372 16.2395 -7.60991
95 6 1 14.7939 17.1313 -8.14814
108 6 2 13.9876 17.0333 -8.88059
109 6 2 14.4067 17.953 -7.44739
96 6 1 16.0614 17.5199 -8.84062
98 6 3 17.1345 18.1054 -8.06096
99 6 1 18.1298 19.0507 -8.54626
100 6 1 17.5448 20.2792 -9.00851
101 6 1 18.3491 21.2392 -9.37359
102 6 1 19.5217 21.506 -8.61949
103 6 1 20.148 20.2992 -8.16829
104 6 1 19.3197 19.2288 -7.71068
105 6 1 20.0683 17.9866 -7.131
106 6 3 19.4432 16.9298 -6.88779
107 6 3 21.2241 18.2359 -6.36567
111 6 2 16.598 20.2842 -9.53083
114 6 2 21.0937 20.3467 -7.71831
115 6 2 21.901 17.4518 -6.13922
113 6 2 20.1775 22.3312 -8.871
32 3 1 15.5927 -6.39639 6.49043
45 3 2 14.5918 -6.39253 5.90767
46 3 2 15.3106 -6.209 7.48143
33 3 1 16.4871 -5.35208 5.94284
34 3 3 16.5621 -5.32085 4.67231
35 3 3 17.6036 -4.97531 6.70032
36 3 1 18.4885 -3.87893 6.39433
41 3 1 19.8791 -4.05634 6.7996
42 3 1 20.618 -5.36607 6.81436
43 3 3 19.9795 -6.45568 6.5555
44 3 3 21.7435 -5.43617 7.63504
47 3 2 16.0869 -7.40931 6.40635
52 3 2 21.748 -5.75792 8.56383
37 3 1 18.0472 -2.55516 6.62192
38 3 1 18.8937 -1.49715 6.50797
39 3 1 20.1817 -1.62112 6.86734
40 3 1 20.777 -2.94796 6.73661
48 3 2 17.0019 -2.25649 6.44706
49 3 2 18.476 -0.513183 6.88769
50 3 2 20.8422 -0.806723 6.72389
51 3 2 21.8878 -3.03967 7.06304
55 4 3 5.72737 17.6867 8.5827
59 4 1 7.5933 21.8792 9.37756
69 4 2 5.76022 20.9259 9.3243
71 4 2 9.58642 22.5997 9.47932
70 4 2 7.07059 22.8541 9.2116
11 2 1 -12.7463 -23.4722 12.5006
12 2 1 -11.3403 -23.3456 12.0079
13 2 3 -11.0075 -24.0978 11.0808
14 2 3 -10.3229 -22.7993 12.7673
24 2 2 -13.3985 -23.4965 11.6567
25 2 2 -12.9907 -22.5663 13.2051
26 2 2 -12.8928 -24.3913 13.0766
21 2 1 -7.3761 -23.4409 13.4281
22 2 3 -7.71285 -24.5116 12.7836
23 2 3 -6.2993 -23.6523 14.3109
31 2 2 -5.85515 -24.5589 14.4669
16 2 1 -9.68702 -20.6496 12.2168
27 2 2 -10.5038 -20.5231 11.456
20 2 1 -8.0307 -22.0909 13.2021
28 2 2 -9.13132 -18.6892 11.8597
15 2 1 -9.22491 -21.934 12.4434
17 2 1 -8.75718 -19.6206 12.245
18 2 1 -7.70239 -19.6729 13.1003
19 2 1 -7.12802 -20.9824 13.1093
29 2 2 -6.95165 -18.8976 12.9887
30 2 2 -6.19927 -20.9604 13.7419
1 1 1 18.6986 7.29669 13.4023
2 1 1 19.6398 8.26589 13.205
3 1 1 20.5299 8.84078 14.3065
6 1 2 18.5694 6.79897 14.3937
7 1 2 18.2232 6.86779 12.4952
8 1 2 19.8686 8.57456 12.1731
5 1 4 21.6852 8.03828 14.654
9 1 2 22.6292 8.30582 14.2351
10 1 2 21.5827 7.31785 15.3721
68 4 2 5.75176 15.7767 10.552
4 1 3 20.1196 9.77598 15.0269
54 4 1 5.49971 17.8098 9.82552
53 4 1 5.0331 16.5565 10.5613
56 4 3 6.52113 18.5001 10.5448
57 4 1 7.27878 19.6009 10.1349
58 4 1 6.71129 20.8441 9.8275
60 4 1 8.90877 21.9468 9.98041
62 4 1 8.6086 19.7604 10.8759
64 4 3 9.48847 17.6948 10.2499
66 4 2 4.07122 16.1779 10.1798
67 4 2 4.85298 16.9112 11.5851
63 4 1 9.25334 18.4517 11.1988
61 4 1 9.45679 20.7307 10.3269
65 4 3 10.081 18.3346 12.2407
72 4 2 10.4118 20.8732 10.7803
73 4 2 11.0546 18.6692 12.2313
ITEM: TIMESTEP
1220
ITEM: NUMBER OF ATOMS
115
ITEM: BOX BOUNDS pp pp pp
-2.8628399999999999e+01 2.8628399999999999e+01
-2.8628399999999999e+01 2.8628399999999999e+01
-2.8628399999999999e+01 2.8628399999999999e+01
ITEM: ATOMS id mol type x y z
74 5 1 12.6491 -12.602 -12.0961
75 5 1 13.303 -11.4013 -12.6486
76 5 3 13.2249 -11.0985 -13.8913
77 5 3 14.5406 -11.1316 -12.1036
78 5 1 15.3161 -10.0111 -12.2144
87 5 2 11.651 -12.8007 -12.3487
88 5 2 12.6919 -12.5677 -11.0185
89 5 2 13.2791 -13.4569 -12.5097
83 5 1 16.6445 -10.0192 -11.5505
84 5 1 17.4945 -11.2256 -11.5625
85 5 3 16.9074 -12.3464 -11.3922
86 5 3 18.6333 -11.1634 -10.651
94 5 2 18.5465 -10.8812 -9.67525
79 5 1 14.5246 -8.85335 -11.9852
80 5 1 15.1235 -7.65112 -11.8356
90 5 2 13.6334 -8.8074 -12.5301
91 5 2 14.5268 -6.80523 -11.4856
81 5 1 16.4046 -7.63103 -11.3164
82 5 1 17.2726 -8.71911 -11.5908
92 5 2 16.8139 -6.62324 -11.4584
93 5 2 18.2325 -8.63053 -11.1158
97 6 3 16.4278 16.9131 -9.88027
112 6 2 18.0188 22.3954 -9.44178
110 6 2 15.1024 16.2857 -7.34211
95 6 1 14.8858 17.124 -8.04675
108 6 2 14.146 16.778 -8.70836
109 6 2 14.4983 17.9754 -7.49818
96 6 1 16.0759 17.5666 -8.84769
98 6 3 17.1552 18.0987 -8.11396
99 6 1 18.0885 19.0557 -8.54305
100 6 1 17.4992 20.288 -9.05967
101 6 1 18.4199 21.325 -9.35224
102 6 1 19.5587 21.4125 -8.56591
103 6 1 20.243 20.2732 -8.15575
104 6 1 19.3346 19.1976 -7.70652
105 6 1 20.044 18.0131 -7.08174
106 6 3 19.5206 16.9016 -6.87142
107 6 3 21.1841 18.2538 -6.27015
111 6 2 16.6498 20.2066 -9.76453
114 6 2 21.1149 20.5081 -7.52435
115 6 2 21.959 17.6622 -6.29708
113 6 2 20.2407 22.14 -8.85442
32 3 1 15.6935 -6.31681 6.5449
45 3 2 14.6796 -6.31799 6.05092
46 3 2 15.6269 -6.15205 7.66576
33 3 1 16.5262 -5.21262 5.92758
34 3 3 16.561 -5.35226 4.63831
35 3 3 17.6975 -4.94311 6.63441
36 3 1 18.5643 -3.89339 6.43528
41 3 1 19.9371 -4.09126 6.82277
42 3 1 20.6603 -5.37584 6.75114
43 3 3 20.0885 -6.47621 6.47069
44 3 3 21.7585 -5.47177 7.59567
47 3 2 16.1561 -7.281 6.40136
52 3 2 21.7118 -5.70044 8.63615
37 3 1 18.024 -2.64471 6.75975
38 3 1 18.8271 -1.52233 6.56253
39 3 1 20.2049 -1.64541 6.8905
40 3 1 20.7418 -2.91196 6.65671
48 3 2 16.9259 -2.5722 6.45155
49 3 2 18.3446 -0.572088 6.62507
50 3 2 20.9114 -0.850814 6.69248
51 3 2 21.7466 -3.03832 7.14792
55 4 3 5.69253 17.7055 8.52911
59 4 1 7.53817 21.875 9.45453
69 4 2 5.694 20.8458 9.23549
71 4 2 9.50379 22.7402 9.63453
70 4 2 7.11562 22.7287 9.07662
11 2 1 -12.7442 -23.5132 12.5969
12 2 1 -11.3112 -23.3575 11.9967
13 2 3 -10.9843 -24.1272 11.0491
14 2 3 -10.312 -22.8242 12.8925
24 2 2 -13.4035 -23.5896 11.6444
25 2 2 -12.9301 -22.688 13.3386
26 2 2 -12.7575 -24.4534 13.1451
21 2 1 -7.42756 -23.5186 13.438
22 2 3 -7.78664 -24.5931 12.8301
23 2 3 -6.42905 -23.6148 14.4076
31 2 2 -5.89782 -24.5028 14.4976
16 2 1 -9.70625 -20.6484 12.2134
27 2 2 -10.5362 -20.4762 11.5805
20 2 1 -7.97443 -22.1335 13.1561
28 2 2 -9.22571 -18.5974 12.1229
15 2 1 -9.23935 -21.9761 12.4362
17 2 1 -8.77382 -19.6177 12.153
18 2 1 -7.59453 -19.7387 12.9725
19 2 1 -7.03502 -21.0444 13.1458
29 2 2 -6.93176 -18.8976 13.162
30 2 2 -6.08111 -21.0178 13.6546
1 1 1 18.7723 7.32057 13.3853
2 1 1 19.5838 8.33707 13.2288
3 1 1 20.5088 8.75759 14.2993
6 1 2 18.6873 6.73106 14.2003
7 1 2 18.148 7.16216 12.5494
8 1 2 19.5431 8.82036 12.225
5 1 4 21.7813 8.1317 14.5739
9 1 2 22.4925 7.85902 13.823
10 1 2 21.8982 7.52125 15.4351
68 4 2 5.57569 15.8027 10.4326
4 1 3 20.189 9.69152 15.0351
54 4 1 5.5118 17.8558 9.77502
53 4 1 4.87357 16.6881 10.4733
56 4 3 6.58099 18.4159 10.5068
57 4 1 7.28308 19.5453 10.1868
58 4 1 6.63694 20.7969 9.8701
60 4 1 8.80035 21.9823 9.97951
62 4 1 8.53776 19.7088 10.897
64 4 3 9.52665 17.7198 10.2453
66 4 2 3.91702 16.4759 9.96586
67 4 2 4.57918 16.9878 11.4932
63 4 1 9.17793 18.4434 11.2235
61 4 1 9.31841 20.7652 10.4503
65 4 3 10.0529 18.3816 12.3151
72 4 2 10.2582 20.934 10.8888
73 4 2 10.8418 18.9877 12.2398
ITEM: TIMESTEP
1240
ITEM: NUMBER OF ATOMS
115
ITEM: BOX BOUNDS pp pp pp
-2.8628399999999999e+01 2.8628399999999999e+01
-2.8628399999999999e+01 2.8628399999999999e+01
-2.8628399999999999e+01 2.8628399999999999e+01
ITEM: ATOMS id mol type x y z
74 5 1 12.5924 -12.6502 -12.1033
75 5 1 13.307 -11.4619 -12.6516
76 5 3 13.1443 -11.1161 -13.858
77 5 3 14.5938 -11.1961 -12.0979
78 5 1 15.3118 -9.98532 -12.2338
87 5 2 11.5121 -12.7492 -12.4322
88 5 2 12.517 -12.4853 -10.9858
89 5 2 13.0984 -13.6048 -12.3698
83 5 1 16.6546 -9.98973 -11.5592
84 5 1 17.4918 -11.1807 -11.3645
85 5 3 16.9579 -12.3251 -11.3777
86 5 3 18.7267 -11.1967 -10.6379
94 5 2 18.7776 -11.0632 -9.63043
79 5 1 14.4736 -8.84304 -12.0458
80 5 1 15.1233 -7.6131 -11.8243
90 5 2 13.5915 -8.79247 -12.6722
91 5 2 14.5354 -6.70422 -11.6404
81 5 1 16.4411 -7.5851 -11.2334
82 5 1 17.28 -8.65392 -11.6301
92 5 2 16.9353 -6.57289 -11.1522
93 5 2 18.2796 -8.57404 -11.3659
97 6 3 16.4404 16.8788 -9.82585
112 6 2 17.9693 22.2607 -9.66746
110 6 2 15.2623 16.2721 -7.37541
95 6 1 14.9089 17.1415 -8.03533
108 6 2 14.1359 16.6585 -8.69824
109 6 2 14.4871 17.9639 -7.38244
96 6 1 16.0817 17.6125 -8.86613
98 6 3 17.1427 18.1358 -8.11897
99 6 1 18.1797 19.0903 -8.4443
100 6 1 17.6563 20.2698 -8.97524
101 6 1 18.4571 21.3612 -9.37525
102 6 1 19.6637 21.4368 -8.58612
103 6 1 20.2182 20.2424 -8.13154
104 6 1 19.3394 19.2009 -7.65224
105 6 1 20.114 18.0179 -7.13071
106 6 3 19.4991 16.9251 -6.92236
107 6 3 21.1343 18.2911 -6.20479
111 6 2 16.9642 20.0553 -9.72771
114 6 2 21.1876 20.3395 -7.6654
115 6 2 21.788 17.5164 -5.95248
113 6 2 20.4251 22.1389 -8.9719
32 3 1 15.7472 -6.23114 6.60136
45 3 2 14.7949 -6.25149 6.04986
46 3 2 15.5781 -5.8044 7.64626
33 3 1 16.5973 -5.26579 5.94373
34 3 3 16.5979 -5.26926 4.67131
35 3 3 17.7978 -5.04249 6.59247
36 3 1 18.5957 -3.89276 6.42114
41 3 1 19.9637 -4.08766 6.92933
42 3 1 20.6464 -5.39446 6.71562
43 3 3 20.0694 -6.49976 6.34789
44 3 3 21.736 -5.56589 7.57274
47 3 2 16.2917 -7.25737 6.62587
52 3 2 21.7045 -5.64357 8.57742
37 3 1 18.0285 -2.64923 6.80517
38 3 1 18.856 -1.5412 6.54272
39 3 1 20.1952 -1.71902 6.96971
40 3 1 20.8047 -2.90209 6.74555
48 3 2 17.0217 -2.59079 6.55529
49 3 2 18.4832 -0.546854 6.78272
50 3 2 20.8628 -0.896011 6.811
51 3 2 21.8433 -2.93277 6.89555
55 4 3 5.73744 17.7253 8.58707
59 4 1 7.421 21.8762 9.41595
69 4 2 5.72238 20.7982 9.29812
71 4 2 9.27464 22.7834 9.75135
70 4 2 6.899 22.7678 9.12543
11 2 1 -12.6422 -23.4767 12.6744
12 2 1 -11.2804 -23.3571 12.0307
13 2 3 -10.9668 -24.098 11.1225
14 2 3 -10.2559 -22.8548 12.8051
24 2 2 -13.4174 -23.6356 11.8917
25 2 2 -12.8065 -22.5432 13.236
26 2 2 -12.5818 -24.3267 13.3653
21 2 1 -7.42989 -23.5276 13.5463
22 2 3 -7.77969 -24.6117 12.9327
23 2 3 -6.45268 -23.6334 14.5587
31 2 2 -5.64504 -24.3844 14.6209
16 2 1 -9.60138 -20.6776 12.2423
27 2 2 -10.5658 -20.4104 11.7888
20 2 1 -7.98914 -22.2021 13.1405
28 2 2 -8.97514 -18.6297 12.221
15 2 1 -9.23514 -22.038 12.4324
17 2 1 -8.67038 -19.647 12.1887
18 2 1 -7.53758 -19.7713 12.8865
19 2 1 -7.03675 -21.1087 13.1146
29 2 2 -6.75777 -19.0344 12.7435
30 2 2 -6.374 -21.081 13.9369
1 1 1 18.8098 7.32826 13.3737
2 1 1 19.7021 8.29657 13.2285
3 1 1 20.6306 8.79355 14.2995
6 1 2 18.8348 6.70482 14.2771
7 1 2 18.0176 7.19591 12.6017
8 1 2 19.7449 8.77343 12.274
5 1 4 21.8459 8.08367 14.4775
9 1 2 22.3269 7.75384 13.6436
10 1 2 21.9143 7.507 15.3765
68 4 2 5.34383 15.8582 10.5272
4 1 3 20.193 9.60739 15.1004
54 4 1 5.4757 17.8029 9.80045
53 4 1 4.68654 16.7233 10.4753
56 4 3 6.4974 18.4265 10.5579
57 4 1 7.25542 19.6004 10.2273
58 4 1 6.64367 20.8477 9.81654
60 4 1 8.6328 22.0024 10.1283
62 4 1 8.46232 19.6857 10.9966
64 4 3 9.54265 17.5839 10.2563
66 4 2 3.80743 16.4289 9.87778
67 4 2 4.30382 17.089 11.4614
63 4 1 9.2389 18.4091 11.2101
61 4 1 9.33515 20.7778 10.532
65 4 3 10.0377 18.4379 12.3953
72 4 2 10.2769 20.9382 11.1337
73 4 2 10.6582 19.1962 12.664
ITEM: TIMESTEP
1260
ITEM: NUMBER OF ATOMS
115
ITEM: BOX BOUNDS pp pp pp
-2.8628399999999999e+01 2.8628399999999999e+01
-2.8628399999999999e+01 2.8628399999999999e+01
-2.8628399999999999e+01 2.8628399999999999e+01
ITEM: ATOMS id mol type x y z
74 5 1 12.6638 -12.6359 -12.1266
75 5 1 13.3978 -11.4861 -12.652
76 5 3 13.1543 -11.1953 -13.8339
77 5 3 14.6495 -11.2132 -12.0854
78 5 1 15.3632 -9.9737 -12.1881
87 5 2 11.565 -12.5372 -12.4645
88 5 2 12.6876 -12.6997 -11.0092
89 5 2 12.9723 -13.6764 -12.5501
83 5 1 16.6403 -9.93118 -11.4249
84 5 1 17.4856 -11.1354 -11.3078
85 5 3 17.0735 -12.3421 -11.3659
86 5 3 18.7287 -11.1482 -10.6324
94 5 2 18.7882 -11.112 -9.63062
79 5 1 14.5496 -8.77139 -12.0217
80 5 1 15.1704 -7.58368 -11.9271
90 5 2 13.5275 -8.76396 -12.4292
91 5 2 14.5169 -6.77566 -11.5711
81 5 1 16.3936 -7.63531 -11.2336
82 5 1 17.2296 -8.7086 -11.6023
92 5 2 16.8994 -6.77145 -10.9725
93 5 2 18.2146 -8.58506 -11.1902
97 6 3 16.3962 16.8228 -9.7977
112 6 2 18.0468 22.2199 -9.77209
110 6 2 15.0877 16.2412 -7.53103
95 6 1 14.9121 17.1902 -8.10417
108 6 2 14.0433 16.9714 -8.78624
109 6 2 14.586 18.0293 -7.42874
96 6 1 16.1274 17.5926 -8.83542
98 6 3 17.1132 18.1912 -8.07099
99 6 1 18.1839 19.1213 -8.47939
100 6 1 17.6435 20.264 -9.06551
101 6 1 18.4903 21.3325 -9.289
102 6 1 19.6942 21.5194 -8.54792
103 6 1 20.2344 20.3041 -8.12504
104 6 1 19.3427 19.2879 -7.6607
105 6 1 20.1239 18.024 -7.14137
106 6 3 19.5396 16.9281 -6.91978
107 6 3 21.1095 18.2786 -6.21309
111 6 2 16.8006 20.2466 -9.75318
114 6 2 21.1113 20.4189 -7.5444
115 6 2 21.8893 17.6335 -6.05714
113 6 2 20.3782 22.3251 -8.92216
32 3 1 15.6884 -6.24594 6.59384
45 3 2 14.7237 -6.34751 6.00378
46 3 2 15.5704 -5.88062 7.63161
33 3 1 16.6308 -5.29946 5.90502
34 3 3 16.7355 -5.23967 4.59575
35 3 3 17.8511 -4.99682 6.5804
36 3 1 18.6337 -3.89595 6.5352
41 3 1 19.981 -4.13098 6.94548
42 3 1 20.6619 -5.42451 6.72217
43 3 3 20.0407 -6.45678 6.21678
44 3 3 21.7253 -5.60934 7.5643
47 3 2 16.1884 -7.25981 6.60337
52 3 2 21.5835 -5.69026 8.59576
37 3 1 17.969 -2.63133 6.8144
38 3 1 18.8219 -1.52742 6.65862
39 3 1 20.1481 -1.62977 6.96666
40 3 1 20.7383 -2.95012 6.85623
48 3 2 16.9574 -2.54363 6.45281
49 3 2 18.3932 -0.545862 6.89461
50 3 2 20.7048 -0.751122 6.93257
51 3 2 21.6529 -3.11525 7.42894
55 4 3 5.77683 17.7038 8.54557
59 4 1 7.45078 21.9393 9.47346
69 4 2 5.62498 20.8024 9.27278
71 4 2 9.33488 22.8652 10.1006
70 4 2 6.98771 22.9116 9.18489
11 2 1 -12.6026 -23.3742 12.6418
12 2 1 -11.2348 -23.2285 11.9486
13 2 3 -10.9929 -24.1029 11.1305
14 2 3 -10.1924 -22.8454 12.8748
24 2 2 -13.3664 -23.6939 11.9072
25 2 2 -12.9403 -22.3845 13.0005
26 2 2 -12.4505 -24.1981 13.478
21 2 1 -7.34365 -23.47 13.5401
22 2 3 -7.77186 -24.5573 12.9909
23 2 3 -6.48946 -23.6301 14.5944
31 2 2 -5.80051 -24.3278 14.637
16 2 1 -9.60416 -20.6892 12.2706
27 2 2 -10.5033 -20.5203 11.6961
20 2 1 -7.94561 -22.1822 13.2381
28 2 2 -8.97203 -18.6848 11.9694
15 2 1 -9.14988 -22.0199 12.5429
17 2 1 -8.66879 -19.6683 12.1237
18 2 1 -7.47082 -19.8028 12.8585
19 2 1 -7.00941 -21.0734 13.1739
29 2 2 -6.60131 -19.0124 12.7162
30 2 2 -6.10607 -21.1168 13.7819
1 1 1 18.8776 7.27515 13.3274
2 1 1 19.7278 8.27654 13.1755
3 1 1 20.6217 8.76284 14.2846
6 1 2 18.8338 6.81894 14.3339
7 1 2 18.2616 6.82947 12.4806
8 1 2 19.8953 8.63816 12.1993
5 1 4 21.897 8.09264 14.4846
9 1 2 22.3894 7.75868 13.6937
10 1 2 22.0708 7.63612 15.3083
68 4 2 5.15261 15.8897 10.7365
4 1 3 20.2854 9.59776 15.1728
54 4 1 5.39856 17.8538 9.74491
53 4 1 4.55337 16.7626 10.4363
56 4 3 6.36475 18.5031 10.553
57 4 1 7.26574 19.5847 10.2054
58 4 1 6.63184 20.8356 9.74763
60 4 1 8.69942 22.0394 10.1992
62 4 1 8.51195 19.6519 10.9075
64 4 3 9.54039 17.5686 10.3688
66 4 2 3.72312 16.3103 9.77694
67 4 2 4.07499 17.2628 11.3505
63 4 1 9.25136 18.3988 11.3263
61 4 1 9.33291 20.8428 10.6512
65 4 3 10.0562 18.3464 12.38
72 4 2 10.233 20.9876 11.1365
73 4 2 10.7819 19.0601 12.4822
ITEM: TIMESTEP
1280
ITEM: NUMBER OF ATOMS
115
ITEM: BOX BOUNDS pp pp pp
-2.8628399999999999e+01 2.8628399999999999e+01
-2.8628399999999999e+01 2.8628399999999999e+01
-2.8628399999999999e+01 2.8628399999999999e+01
ITEM: ATOMS id mol type x y z
74 5 1 12.7156 -12.7086 -12.1366
75 5 1 13.3813 -11.4868 -12.6531
76 5 3 13.1548 -11.2182 -13.8559
77 5 3 14.6251 -11.1703 -12.069
78 5 1 15.3574 -10.007 -12.0553
87 5 2 11.627 -12.7478 -12.2558
88 5 2 12.9167 -12.9114 -11.0513
89 5 2 13.0916 -13.6 -12.6857
83 5 1 16.6755 -9.98302 -11.347
84 5 1 17.6031 -11.1951 -11.3491
85 5 3 17.1032 -12.3569 -11.2863
86 5 3 18.8354 -11.0898 -10.65
94 5 2 18.7139 -11.1194 -9.65796
79 5 1 14.5678 -8.77378 -12.0657
80 5 1 15.2163 -7.56057 -11.9254
90 5 2 13.8053 -8.80953 -12.7753
91 5 2 14.6025 -6.64164 -11.8216
81 5 1 16.3696 -7.54048 -11.1399
82 5 1 17.2694 -8.66667 -11.4508
92 5 2 16.7652 -6.55614 -10.9833
93 5 2 18.3147 -8.57688 -11.0183
97 6 3 16.3905 16.8962 -9.80594
112 6 2 18.1459 22.2307 -9.78783
110 6 2 15.1653 16.1771 -7.74094
95 6 1 14.8833 17.178 -8.07271
108 6 2 13.9579 17.1476 -8.64651
109 6 2 14.7502 17.854 -7.20285
96 6 1 16.0819 17.6466 -8.83048
98 6 3 17.2253 18.1753 -8.10123
99 6 1 18.2101 19.0633 -8.54664
100 6 1 17.6942 20.2964 -9.11257
101 6 1 18.6108 21.3115 -9.45888
102 6 1 19.6133 21.5757 -8.49281
103 6 1 20.2252 20.3709 -7.90612
104 6 1 19.3454 19.2503 -7.62153
105 6 1 20.1224 18.0698 -7.0486
106 6 3 19.5261 16.9682 -6.93314
107 6 3 21.2447 18.2388 -6.24426
111 6 2 16.9218 20.2066 -9.86773
114 6 2 21.0537 20.4824 -7.20457
115 6 2 21.9451 17.5172 -6.12957
113 6 2 20.2687 22.3896 -8.76778
32 3 1 15.6487 -6.17099 6.47525
45 3 2 14.685 -6.07927 6.00553
46 3 2 15.5757 -6.00945 7.53671
33 3 1 16.5741 -5.13734 5.92911
34 3 3 16.7558 -5.31137 4.67076
35 3 3 17.7333 -4.97058 6.61566
36 3 1 18.5818 -3.92825 6.55243
41 3 1 19.9188 -4.08324 7.04841
42 3 1 20.6665 -5.35 6.67572
43 3 3 20.1732 -6.46055 6.24779
44 3 3 21.716 -5.69799 7.52993
47 3 2 16.0517 -7.09855 6.25223
52 3 2 21.4469 -5.93748 8.47434
37 3 1 17.9704 -2.62241 6.87913
38 3 1 18.7704 -1.50187 6.7062
39 3 1 20.0889 -1.63562 7.10873
40 3 1 20.697 -2.91664 6.94131
48 3 2 16.9376 -2.4786 6.56537
49 3 2 18.3475 -0.548689 6.9214
50 3 2 20.7103 -0.786941 6.86056
51 3 2 21.7796 -3.01347 7.2751
55 4 3 5.70638 17.5581 8.57913
59 4 1 7.48315 21.9172 9.48311
69 4 2 5.72273 20.7858 9.17615
71 4 2 9.29926 22.7604 9.98632
70 4 2 7.06221 22.8482 9.26732
11 2 1 -12.5629 -23.2955 12.5717
12 2 1 -11.261 -23.2553 11.9984
13 2 3 -11.01 -24.0597 11.0767
14 2 3 -10.1845 -22.9007 12.8619
24 2 2 -13.3118 -23.5113 11.7845
25 2 2 -12.8489 -22.2573 13.0105
26 2 2 -12.5745 -24.0228 13.3727
21 2 1 -7.24904 -23.4752 13.579
22 2 3 -7.72798 -24.5356 12.9871
23 2 3 -6.44186 -23.6937 14.6155
31 2 2 -5.71143 -24.3139 14.5308
16 2 1 -9.55627 -20.6592 12.3194
27 2 2 -10.4381 -20.5344 11.7282
20 2 1 -7.88751 -22.1109 13.3315
28 2 2 -8.9173 -18.7083 11.7801
15 2 1 -9.14402 -21.9833 12.5978
17 2 1 -8.60401 -19.7325 12.0119
18 2 1 -7.4783 -19.7613 12.8619
19 2 1 -6.89587 -21.1036 13.0546
29 2 2 -6.72844 -19.0017 12.719
30 2 2 -5.90887 -21.1398 13.5537
1 1 1 18.9527 7.24994 13.3795
2 1 1 19.8141 8.27364 13.2622
3 1 1 20.6451 8.72309 14.3118
6 1 2 18.8559 6.77053 14.3097
7 1 2 18.4042 6.99107 12.4973
8 1 2 19.815 8.78174 12.3257
5 1 4 21.9066 8.12605 14.5021
9 1 2 22.5256 8.02116 13.661
10 1 2 22.1413 7.53168 15.3584
68 4 2 5.26338 16.0236 10.879
4 1 3 20.3023 9.53978 15.1941
54 4 1 5.38459 17.8985 9.75347
53 4 1 4.54328 16.814 10.4117
56 4 3 6.34116 18.5273 10.5375
57 4 1 7.22964 19.6294 10.2056
58 4 1 6.65474 20.8469 9.77396
60 4 1 8.60676 21.9943 10.2837
62 4 1 8.48778 19.645 10.92
64 4 3 9.48614 17.5943 10.3923
66 4 2 3.9048 16.2411 9.7413
67 4 2 3.92386 17.3299 11.1896
63 4 1 9.21943 18.4093 11.2945
61 4 1 9.30595 20.7699 10.5681
65 4 3 10.0127 18.4225 12.4728
72 4 2 10.2176 20.9839 11.1346
73 4 2 10.8608 18.8376 12.4714
ITEM: TIMESTEP
1300
ITEM: NUMBER OF ATOMS
115
ITEM: BOX BOUNDS pp pp pp
-2.8628399999999999e+01 2.8628399999999999e+01
-2.8628399999999999e+01 2.8628399999999999e+01
-2.8628399999999999e+01 2.8628399999999999e+01
ITEM: ATOMS id mol type x y z
74 5 1 12.7213 -12.7747 -12.2224
75 5 1 13.2822 -11.4442 -12.635
76 5 3 13.1265 -11.2134 -13.8586
77 5 3 14.584 -11.1931 -12.0401
78 5 1 15.3021 -9.99923 -12.0309
87 5 2 11.6986 -12.998 -12.5712
88 5 2 12.7061 -12.8776 -11.1354
89 5 2 13.3568 -13.5687 -12.6495
83 5 1 16.603 -9.94548 -11.3836
84 5 1 17.5927 -11.1268 -11.3558
85 5 3 17.1539 -12.3295 -11.2774
86 5 3 18.834 -10.9913 -10.724
94 5 2 18.9509 -10.8229 -9.73611
79 5 1 14.5599 -8.7214 -12.063
80 5 1 15.2273 -7.51461 -11.8743
90 5 2 13.6579 -8.7283 -12.6055
91 5 2 14.6831 -6.64981 -11.9163
81 5 1 16.3461 -7.52191 -11.1533
82 5 1 17.1863 -8.62695 -11.3273
92 5 2 16.8523 -6.52086 -11.1301
93 5 2 18.0392 -8.55487 -10.8679
97 6 3 16.3759 16.9719 -9.83746
112 6 2 18.3161 22.1199 -9.91955
110 6 2 15.156 16.2483 -7.5967
95 6 1 14.9908 17.2194 -8.04956
108 6 2 14.0645 17.2674 -8.72514
109 6 2 14.8302 17.963 -7.29578
96 6 1 16.1671 17.6549 -8.85304
98 6 3 17.2695 18.1437 -8.1717
99 6 1 18.2648 19.0337 -8.57817
100 6 1 17.7934 20.1907 -9.24094
101 6 1 18.6955 21.2528 -9.46579
102 6 1 19.5713 21.485 -8.41355
103 6 1 20.2112 20.4622 -7.76318
104 6 1 19.3284 19.3207 -7.58535
105 6 1 20.1331 18.1088 -7.07384
106 6 3 19.5065 17.0282 -6.88772
107 6 3 21.232 18.25 -6.27841
111 6 2 17.0162 20.1406 -10.0217
114 6 2 20.9244 20.7653 -6.9401
115 6 2 21.8475 17.4512 -6.10838
113 6 2 20.1469 22.3872 -8.43904
32 3 1 15.6012 -6.22376 6.36183
45 3 2 14.6605 -6.2314 5.67677
46 3 2 15.4674 -5.99728 7.43745
33 3 1 16.5291 -5.20065 5.83444
34 3 3 16.7528 -5.31982 4.59462
35 3 3 17.6832 -4.92092 6.68414
36 3 1 18.5912 -3.89535 6.57358
41 3 1 19.9464 -4.07644 7.05475
42 3 1 20.7458 -5.28891 6.70148
43 3 3 20.1863 -6.38557 6.38066
44 3 3 21.7815 -5.61233 7.52087
47 3 2 16.1104 -7.20803 6.19729
52 3 2 21.4736 -6.06628 8.37938
37 3 1 17.966 -2.66633 6.90854
38 3 1 18.7347 -1.53295 6.81814
39 3 1 20.092 -1.65223 7.15244
40 3 1 20.7298 -2.85507 6.92945
48 3 2 16.9836 -2.60238 6.55872
49 3 2 18.2687 -0.615877 7.10234
50 3 2 20.6952 -0.767849 6.90092
51 3 2 21.7203 -2.96222 7.27955
55 4 3 5.79732 17.4187 8.55851
59 4 1 7.50453 21.9073 9.51183
69 4 2 5.6715 20.7943 9.36093
71 4 2 9.14136 23.0493 10.308
70 4 2 7.03197 22.8694 9.17347
11 2 1 -12.5715 -23.3022 12.6097
12 2 1 -11.2228 -23.2256 11.9396
13 2 3 -10.9361 -24.0545 11.0039
14 2 3 -10.0902 -22.9424 12.8544
24 2 2 -13.364 -23.283 11.8348
25 2 2 -12.7063 -22.3869 13.3281
26 2 2 -12.683 -24.2023 13.1658
21 2 1 -7.20569 -23.5042 13.5346
22 2 3 -7.71615 -24.5554 13.0151
23 2 3 -6.35919 -23.749 14.6095
31 2 2 -5.66074 -24.5336 14.6275
16 2 1 -9.54808 -20.6851 12.351
27 2 2 -10.4676 -20.5056 11.7568
20 2 1 -7.83795 -22.1296 13.2836
28 2 2 -8.79706 -18.7955 11.6373
15 2 1 -9.07774 -22.0021 12.6474
17 2 1 -8.52632 -19.7578 12.0209
18 2 1 -7.3771 -19.7798 12.8213
19 2 1 -6.91467 -21.074 13.0769
29 2 2 -6.63754 -19.036 12.8357
30 2 2 -6.01333 -21.1079 13.7276
1 1 1 18.9431 7.28436 13.4188
2 1 1 19.8414 8.29402 13.2419
3 1 1 20.7841 8.79048 14.2601
6 1 2 18.9799 6.69941 14.3688
7 1 2 18.3444 7.06027 12.5928
8 1 2 19.6778 8.82704 12.3079
5 1 4 22.0276 8.03223 14.4722
9 1 2 22.5873 7.80887 13.6218
10 1 2 22.0255 7.31124 15.2672
68 4 2 5.18488 16.1464 10.8102
4 1 3 20.2287 9.44931 15.2106
54 4 1 5.38991 17.8957 9.69286
53 4 1 4.54746 16.8999 10.3877
56 4 3 6.38535 18.4598 10.544
57 4 1 7.25418 19.5407 10.1611
58 4 1 6.6551 20.7821 9.81806
60 4 1 8.57415 22.135 10.3213
62 4 1 8.50758 19.7472 10.9583
64 4 3 9.49584 17.6322 10.4221
66 4 2 3.79565 16.4729 9.70567
67 4 2 4.01521 17.4251 11.1718
63 4 1 9.17659 18.4739 11.3122
61 4 1 9.33501 20.9121 10.5528
65 4 3 9.94226 18.5179 12.4972
72 4 2 10.39 21.0766 11.0482
73 4 2 10.9195 18.7902 12.577
ITEM: TIMESTEP
1320
ITEM: NUMBER OF ATOMS
115
ITEM: BOX BOUNDS pp pp pp
-2.8628399999999999e+01 2.8628399999999999e+01
-2.8628399999999999e+01 2.8628399999999999e+01
-2.8628399999999999e+01 2.8628399999999999e+01
ITEM: ATOMS id mol type x y z
74 5 1 12.7326 -12.8527 -12.2616
75 5 1 13.2578 -11.4923 -12.6367
76 5 3 13.1608 -11.2649 -13.8646
77 5 3 14.4467 -11.1854 -11.9559
78 5 1 15.234 -9.975 -12.1101
87 5 2 11.7059 -12.9549 -12.6353
88 5 2 12.6362 -13.025 -11.18
89 5 2 13.3385 -13.6269 -12.7954
83 5 1 16.5099 -9.96038 -11.3289
84 5 1 17.553 -11.0733 -11.3297
85 5 3 17.1616 -12.2553 -11.2964
86 5 3 18.7728 -10.9111 -10.7464
94 5 2 18.8909 -11.1296 -9.77003
79 5 1 14.4511 -8.78043 -11.9602
80 5 1 15.1341 -7.58761 -11.9369
90 5 2 13.4758 -8.84698 -12.5094
91 5 2 14.5292 -6.75456 -11.7105
81 5 1 16.3566 -7.58404 -11.1657
82 5 1 17.1646 -8.74283 -11.2016
92 5 2 16.9375 -6.67665 -11.2493
93 5 2 18.049 -8.64093 -10.4972
97 6 3 16.3787 16.9266 -9.91584
112 6 2 18.3401 22.1081 -10.0944
110 6 2 15.3481 16.3997 -7.42188
95 6 1 15.0444 17.2822 -8.02672
108 6 2 14.1183 17.1016 -8.65208
109 6 2 14.7942 18.1342 -7.32186
96 6 1 16.1981 17.6658 -8.92054
98 6 3 17.2909 18.139 -8.14667
99 6 1 18.3108 19.0558 -8.57652
100 6 1 17.8169 20.1322 -9.34901
101 6 1 18.7509 21.2158 -9.53516
102 6 1 19.4799 21.6411 -8.39755
103 6 1 20.0765 20.4756 -7.79422
104 6 1 19.3863 19.2597 -7.6205
105 6 1 20.1241 18.0276 -7.05647
106 6 3 19.4852 16.9398 -6.85647
107 6 3 21.2667 18.2445 -6.19474
111 6 2 17.1641 19.958 -10.1626
114 6 2 20.6849 20.7028 -6.95765
115 6 2 21.9643 17.5522 -6.09078
113 6 2 20.1343 22.5372 -8.46502
32 3 1 15.6272 -6.36604 6.29629
45 3 2 14.7459 -6.41951 5.56286
46 3 2 15.404 -6.16464 7.4494
33 3 1 16.5584 -5.25329 5.79838
34 3 3 16.7916 -5.3306 4.53529
35 3 3 17.6362 -4.97654 6.67209
36 3 1 18.5584 -3.90401 6.51956
41 3 1 19.9963 -4.08586 7.01294
42 3 1 20.8071 -5.29499 6.75269
43 3 3 20.1632 -6.32058 6.35995
44 3 3 21.9031 -5.50467 7.62097
47 3 2 16.1968 -7.36743 6.18084
52 3 2 21.8177 -5.56121 8.66785
37 3 1 18.0201 -2.66185 6.80623
38 3 1 18.7128 -1.436 6.82744
39 3 1 20.0795 -1.60007 7.17167
40 3 1 20.7646 -2.82506 6.90359
48 3 2 17.0152 -2.55625 6.44441
49 3 2 18.2544 -0.548017 7.15391
50 3 2 20.7172 -0.732008 7.07936
51 3 2 21.773 -2.88418 7.31477
55 4 3 5.7614 17.4609 8.52182
59 4 1 7.43378 21.9551 9.48677
69 4 2 5.74513 20.7308 9.19811
71 4 2 9.136 22.9447 10.1349
70 4 2 6.96756 22.8624 9.1794
11 2 1 -12.5029 -23.3495 12.6223
12 2 1 -11.1619 -23.2856 12.0237
13 2 3 -10.9732 -23.9639 10.967
14 2 3 -10.0741 -22.9459 12.8117
24 2 2 -13.2969 -23.2438 11.8335
25 2 2 -12.7108 -22.5639 13.2965
26 2 2 -12.6748 -24.3338 13.1554
21 2 1 -7.20683 -23.5341 13.5291
22 2 3 -7.71917 -24.5834 13.0129
23 2 3 -6.32969 -23.7059 14.5782
31 2 2 -5.83261 -24.5323 14.5173
16 2 1 -9.51006 -20.6449 12.3621
27 2 2 -10.4056 -20.462 11.8523
20 2 1 -7.85541 -22.1785 13.3923
28 2 2 -8.85756 -18.734 11.8201
15 2 1 -9.05274 -22.0206 12.5725
17 2 1 -8.54805 -19.7769 11.9721
18 2 1 -7.38238 -19.8391 12.7136
19 2 1 -6.8659 -21.1667 13.1167
29 2 2 -6.5877 -19.2028 12.3278
30 2 2 -5.91472 -21.2 13.5764
1 1 1 18.9943 7.3315 13.3882
2 1 1 19.7873 8.40901 13.2485
3 1 1 20.7532 8.74084 14.2237
6 1 2 19.0381 6.63062 14.2102
7 1 2 18.2175 7.12148 12.6953
8 1 2 19.6037 9.04875 12.3237
5 1 4 21.94 7.9341 14.4564
9 1 2 22.5034 7.80719 13.5443
10 1 2 21.8159 7.06808 15.0517
68 4 2 5.00274 16.0441 10.4916
4 1 3 20.3486 9.34216 15.2644
54 4 1 5.48109 17.8377 9.69648
53 4 1 4.5276 16.9721 10.3665
56 4 3 6.41021 18.4832 10.5203
57 4 1 7.28914 19.5188 10.1213
58 4 1 6.6948 20.7355 9.74089
60 4 1 8.4859 22.1502 10.3373
62 4 1 8.46053 19.8129 10.9435
64 4 3 9.37662 17.6373 10.5215
66 4 2 3.64774 16.8494 9.71311
67 4 2 4.14988 17.3829 11.3321
63 4 1 9.223 18.5776 11.3163
61 4 1 9.1803 21.0061 10.7287
65 4 3 9.97525 18.4388 12.4351
72 4 2 9.91761 21.2304 11.481
73 4 2 10.8218 19.0192 12.55
ITEM: TIMESTEP
1340
ITEM: NUMBER OF ATOMS
115
ITEM: BOX BOUNDS pp pp pp
-2.8628399999999999e+01 2.8628399999999999e+01
-2.8628399999999999e+01 2.8628399999999999e+01
-2.8628399999999999e+01 2.8628399999999999e+01
ITEM: ATOMS id mol type x y z
74 5 1 12.6809 -12.8653 -12.3503
75 5 1 13.2194 -11.4955 -12.7054
76 5 3 13.1428 -11.2264 -13.916
77 5 3 14.4032 -11.1885 -11.9786
78 5 1 15.2275 -10.0448 -11.9896
87 5 2 11.7617 -13.1307 -12.8308
88 5 2 12.4941 -12.921 -11.2596
89 5 2 13.349 -13.6596 -12.6684
83 5 1 16.485 -9.97042 -11.3068
84 5 1 17.5615 -11.0656 -11.4245
85 5 3 17.0662 -12.2492 -11.2773
86 5 3 18.8322 -10.9611 -10.7845
94 5 2 18.9204 -11.0678 -9.77288
79 5 1 14.482 -8.85092 -11.8889
80 5 1 15.1108 -7.60451 -11.8597
90 5 2 13.6208 -8.84889 -12.4567
91 5 2 14.4974 -6.68002 -11.8237
81 5 1 16.3015 -7.53224 -11.2404
82 5 1 17.0777 -8.7062 -11.1749
92 5 2 16.6899 -6.55661 -11.1022
93 5 2 17.8967 -8.65409 -10.5023
97 6 3 16.3915 16.9337 -9.95969
112 6 2 18.3483 22.0067 -10.203
110 6 2 15.5272 16.2952 -7.45383
95 6 1 15.0914 17.2648 -7.92764
108 6 2 14.1399 17.1441 -8.4803
109 6 2 14.9324 17.9426 -7.11299
96 6 1 16.2024 17.6408 -8.92244
98 6 3 17.2191 18.1631 -8.16845
99 6 1 18.2306 19.0519 -8.57758
100 6 1 17.8192 20.1666 -9.31895
101 6 1 18.6844 21.2144 -9.56509
102 6 1 19.4415 21.5872 -8.47471
103 6 1 20.057 20.4907 -7.72255
104 6 1 19.354 19.2478 -7.62276
105 6 1 20.0864 18.0468 -7.09763
106 6 3 19.5531 16.9291 -6.82242
107 6 3 21.1753 18.2574 -6.21365
111 6 2 17.148 20.013 -10.1437
114 6 2 20.7391 20.6906 -6.93629
115 6 2 21.8195 17.5238 -5.93233
113 6 2 20.0615 22.4744 -8.56269
32 3 1 15.7536 -6.43598 6.40576
45 3 2 14.8934 -6.47232 5.72212
46 3 2 15.4194 -6.29545 7.42942
33 3 1 16.5494 -5.31033 5.85805
34 3 3 16.7952 -5.37633 4.64863
35 3 3 17.6571 -4.94916 6.62873
36 3 1 18.5376 -3.83935 6.49754
41 3 1 19.9556 -3.97284 6.9914
42 3 1 20.7064 -5.26225 6.87934
43 3 3 20.2256 -6.25025 6.25689
44 3 3 21.8977 -5.43321 7.6214
47 3 2 16.3051 -7.34611 6.34974
52 3 2 21.9956 -5.15854 8.54033
37 3 1 17.952 -2.6185 6.72586
38 3 1 18.806 -1.50308 6.70911
39 3 1 20.1478 -1.57903 7.14661
40 3 1 20.7736 -2.82444 6.89226
48 3 2 16.9492 -2.42616 6.31881
49 3 2 18.3818 -0.540557 7.06279
50 3 2 20.6592 -0.666006 7.07398
51 3 2 21.8047 -2.95908 7.16527
55 4 3 5.75542 17.5578 8.52218
59 4 1 7.399 21.8762 9.46603
69 4 2 5.82246 20.779 9.0105
71 4 2 9.18758 22.9548 9.96375
70 4 2 6.85641 22.7621 9.07273
11 2 1 -12.5491 -23.3576 12.562
12 2 1 -11.2229 -23.2602 11.9628
13 2 3 -11.0371 -23.9579 10.8708
14 2 3 -10.1219 -22.9256 12.7939
24 2 2 -13.4418 -23.3511 11.8978
25 2 2 -12.708 -22.5135 13.2263
26 2 2 -12.6003 -24.314 13.1438
21 2 1 -7.33645 -23.4564 13.5726
22 2 3 -7.74692 -24.5011 13.0401
23 2 3 -6.3028 -23.7514 14.5592
31 2 2 -5.67937 -24.5302 14.4346
16 2 1 -9.55926 -20.717 12.3002
27 2 2 -10.5456 -20.5521 11.8411
20 2 1 -7.97063 -22.1312 13.3903
28 2 2 -8.78155 -18.7468 11.7173
15 2 1 -9.13092 -22.0111 12.578
17 2 1 -8.51829 -19.7274 12.0317
18 2 1 -7.27049 -19.8912 12.7017
19 2 1 -6.90985 -21.2322 12.9983
29 2 2 -6.42997 -19.2397 12.5033
30 2 2 -5.96882 -21.3384 13.4831
1 1 1 18.9621 7.36162 13.3182
2 1 1 19.8085 8.37934 13.2247
3 1 1 20.8054 8.80073 14.2112
6 1 2 18.9676 6.66771 14.0894
7 1 2 18.2318 7.07878 12.5356
8 1 2 19.6136 9.07119 12.3803
5 1 4 21.9568 7.9297 14.3592
9 1 2 22.6763 7.88507 13.6057
10 1 2 21.8806 7.06379 14.922
68 4 2 4.87539 15.8688 10.6802
4 1 3 20.467 9.38863 15.2927
54 4 1 5.48519 17.8234 9.68905
53 4 1 4.45742 16.926 10.4032
56 4 3 6.47774 18.505 10.4763
57 4 1 7.25896 19.6245 10.1139
58 4 1 6.6002 20.7985 9.72987
60 4 1 8.50296 22.1703 10.2775
62 4 1 8.45543 19.7714 10.9507
64 4 3 9.35793 17.5239 10.4365
66 4 2 3.53072 16.818 9.84031
67 4 2 4.20236 17.4338 11.3015
63 4 1 9.25712 18.4743 11.2733
61 4 1 9.16229 21.0252 10.8403
65 4 3 10.0503 18.4215 12.4573
72 4 2 9.85401 21.2764 11.5158
73 4 2 10.7514 19.095 12.5885
ITEM: TIMESTEP
1360
ITEM: NUMBER OF ATOMS
115
ITEM: BOX BOUNDS pp pp pp
-2.8628399999999999e+01 2.8628399999999999e+01
-2.8628399999999999e+01 2.8628399999999999e+01
-2.8628399999999999e+01 2.8628399999999999e+01
ITEM: ATOMS id mol type x y z
74 5 1 12.6125 -12.8432 -12.438
75 5 1 13.2098 -11.5235 -12.7332
76 5 3 13.1377 -11.1803 -13.9465
77 5 3 14.4333 -11.2155 -11.9761
78 5 1 15.2074 -10.0188 -11.9549
87 5 2 11.6522 -13.0224 -13.0194
88 5 2 12.3667 -12.8941 -11.3416
89 5 2 13.314 -13.6047 -12.6867
83 5 1 16.5335 -9.98358 -11.2798
84 5 1 17.4944 -11.0913 -11.4311
85 5 3 17.0128 -12.2844 -11.303
86 5 3 18.7782 -10.976 -10.8731
94 5 2 18.9961 -10.9241 -9.8927
79 5 1 14.3933 -8.74538 -11.8291
80 5 1 15.0625 -7.58737 -11.8895
90 5 2 13.4862 -8.77025 -12.2747
91 5 2 14.417 -6.70645 -11.8283
81 5 1 16.2176 -7.47205 -11.1396
82 5 1 17.0844 -8.6571 -11.1147
92 5 2 16.7728 -6.51467 -11.101
93 5 2 18.0575 -8.56113 -10.5486
97 6 3 16.4302 16.9374 -9.93018
112 6 2 18.3876 21.9714 -10.1325
110 6 2 15.3999 16.3066 -7.37461
95 6 1 15.0632 17.2265 -7.94128
108 6 2 14.0597 16.9662 -8.48746
109 6 2 14.9492 18.0096 -7.18435
96 6 1 16.1512 17.6758 -8.93244
98 6 3 17.2782 18.1478 -8.17415
99 6 1 18.2383 19.0268 -8.5233
100 6 1 17.7701 20.1567 -9.30772
101 6 1 18.6824 21.2071 -9.56961
102 6 1 19.4887 21.5102 -8.45047
103 6 1 20.019 20.5036 -7.74692
104 6 1 19.3037 19.2211 -7.59552
105 6 1 20.1583 18.0868 -7.18546
106 6 3 19.5967 16.9934 -6.89967
107 6 3 21.132 18.2314 -6.16346
111 6 2 16.9943 19.9296 -10.034
114 6 2 20.5652 20.8436 -6.85139
115 6 2 21.7446 17.4594 -5.88013
113 6 2 20.0995 22.3656 -8.54814
32 3 1 15.7515 -6.5017 6.41181
45 3 2 14.7633 -6.60648 5.98315
46 3 2 15.6838 -6.42166 7.44662
33 3 1 16.6257 -5.3473 5.86742
34 3 3 16.8182 -5.32756 4.65921
35 3 3 17.7481 -5.01375 6.65859
36 3 1 18.5592 -3.88077 6.49792
41 3 1 19.8545 -3.96466 7.08172
42 3 1 20.5915 -5.28137 7.04103
43 3 3 20.2426 -6.19877 6.2723
44 3 3 21.8189 -5.38992 7.62219
47 3 2 16.2984 -7.44196 6.1442
52 3 2 22.0159 -4.94349 8.51514
37 3 1 17.9625 -2.5714 6.63282
38 3 1 18.7925 -1.42251 6.61436
39 3 1 20.0792 -1.56843 7.10811
40 3 1 20.6271 -2.77941 6.91942
48 3 2 17.0393 -2.41441 6.18564
49 3 2 18.3357 -0.43235 6.83351
50 3 2 20.7704 -0.724454 6.98474
51 3 2 21.6942 -2.86737 7.29079
55 4 3 5.69423 17.5933 8.47651
59 4 1 7.40865 21.9678 9.42085
69 4 2 5.7346 20.8002 9.16625
71 4 2 9.12789 23.0708 10.1581
70 4 2 6.84362 22.8963 9.20517
11 2 1 -12.5523 -23.3756 12.5129
12 2 1 -11.2299 -23.2171 11.8907
13 2 3 -10.9666 -23.9241 10.8597
14 2 3 -10.1744 -22.965 12.7648
24 2 2 -13.3926 -23.0758 11.9037
25 2 2 -12.5919 -22.6561 13.3599
26 2 2 -12.7432 -24.3997 12.907
21 2 1 -7.36223 -23.5531 13.7017
22 2 3 -7.74385 -24.509 13.0483
23 2 3 -6.23907 -23.7013 14.4479
31 2 2 -5.44816 -24.406 14.3252
16 2 1 -9.54588 -20.7118 12.3017
27 2 2 -10.3793 -20.5335 11.5699
20 2 1 -7.90687 -22.2168 13.3658
28 2 2 -8.85146 -18.7892 12.0503
15 2 1 -9.09 -22.0299 12.5119
17 2 1 -8.52506 -19.7692 12.0813
18 2 1 -7.3038 -19.9501 12.7656
19 2 1 -6.92309 -21.2105 13.0463
29 2 2 -6.52473 -19.3232 12.4291
30 2 2 -5.9486 -21.2728 13.5264
1 1 1 18.8853 7.46142 13.3023
2 1 1 19.7885 8.42779 13.2048
3 1 1 20.8153 8.76674 14.2396
6 1 2 18.7745 6.82343 14.1886
7 1 2 18.2869 7.22514 12.4524
8 1 2 19.8648 8.89454 12.227
5 1 4 21.9763 8.03298 14.2749
9 1 2 22.6538 8.15356 13.5742
10 1 2 21.967 7.08987 14.5988
68 4 2 5.159 16.0852 10.7646
4 1 3 20.5347 9.29137 15.3389
54 4 1 5.43144 17.9643 9.64441
53 4 1 4.58474 17.0068 10.4307
56 4 3 6.46783 18.4717 10.3887
57 4 1 7.30745 19.5923 10.1309
58 4 1 6.63504 20.8562 9.75487
60 4 1 8.56401 22.1266 10.2542
62 4 1 8.50724 19.7261 10.9204
64 4 3 9.41477 17.5581 10.4304
66 4 2 3.74533 16.6503 9.74689
67 4 2 4.19961 17.5743 11.2511
63 4 1 9.1771 18.4478 11.2682
61 4 1 9.1875 20.9856 10.8407
65 4 3 9.96767 18.3918 12.4209
72 4 2 10.0612 21.1755 11.504
73 4 2 10.8389 18.9146 12.6115
ITEM: TIMESTEP
1380
ITEM: NUMBER OF ATOMS
115
ITEM: BOX BOUNDS pp pp pp
-2.8628399999999999e+01 2.8628399999999999e+01
-2.8628399999999999e+01 2.8628399999999999e+01
-2.8628399999999999e+01 2.8628399999999999e+01
ITEM: ATOMS id mol type x y z
74 5 1 12.5793 -12.8209 -12.382
75 5 1 13.2438 -11.4911 -12.6993
76 5 3 13.1652 -11.1925 -13.9459
77 5 3 14.4285 -11.1539 -11.9977
78 5 1 15.0985 -9.98207 -11.9042
87 5 2 11.4826 -12.7649 -12.7505
88 5 2 12.5977 -13.0777 -11.2708
89 5 2 13.0806 -13.6313 -12.9572
83 5 1 16.4764 -9.93344 -11.2821
84 5 1 17.4388 -11.1155 -11.4753
85 5 3 17.0717 -12.3026 -11.2473
86 5 3 18.7605 -10.9689 -10.9061
94 5 2 18.9655 -11.363 -9.95764
79 5 1 14.3132 -8.76357 -11.8219
80 5 1 15.0054 -7.58047 -11.8842
90 5 2 13.3381 -8.7459 -12.4353
91 5 2 14.4445 -6.6382 -11.8841
81 5 1 16.1978 -7.47628 -11.1699
82 5 1 17.0238 -8.62233 -11.1452
92 5 2 16.7381 -6.54642 -11.3219
93 5 2 17.7842 -8.47305 -10.4159
97 6 3 16.5128 16.8621 -9.90583
112 6 2 18.3897 21.9433 -10.2399
110 6 2 15.2939 16.3239 -7.42841
95 6 1 15.1067 17.2369 -8.05718
108 6 2 14.1583 17.1723 -8.64826
109 6 2 15.0041 18.0456 -7.30012
96 6 1 16.1587 17.6539 -8.96933
98 6 3 17.2041 18.1847 -8.19444
99 6 1 18.2956 19.0088 -8.60155
100 6 1 17.8101 20.1893 -9.18767
101 6 1 18.6928 21.1756 -9.54163
102 6 1 19.5978 21.5172 -8.50642
103 6 1 20.052 20.4368 -7.70457
104 6 1 19.3156 19.2186 -7.61133
105 6 1 20.1518 18.0902 -7.07118
106 6 3 19.4786 17.0155 -7.00599
107 6 3 21.1993 18.3034 -6.16527
111 6 2 17.1042 20.0139 -9.99521
114 6 2 20.586 20.6571 -6.81254
115 6 2 21.8594 17.5489 -5.96846
113 6 2 20.1724 22.4117 -8.63501
32 3 1 15.7906 -6.50243 6.414
45 3 2 14.7793 -6.35658 6.02652
46 3 2 15.6688 -6.3885 7.58769
33 3 1 16.6658 -5.4502 5.86689
34 3 3 16.7466 -5.31074 4.6301
35 3 3 17.7769 -5.06729 6.67381
36 3 1 18.5359 -3.85419 6.55104
41 3 1 19.9025 -3.95059 7.07969
42 3 1 20.5643 -5.30539 7.06975
43 3 3 20.2764 -6.21839 6.23396
44 3 3 21.8255 -5.4647 7.66823
47 3 2 16.0785 -7.59348 6.1046
52 3 2 22.0726 -4.88111 8.50116
37 3 1 17.9558 -2.55943 6.53748
38 3 1 18.7708 -1.41398 6.53791
39 3 1 20.044 -1.52437 7.0762
40 3 1 20.7263 -2.79353 6.9277
48 3 2 17.1091 -2.39594 5.91488
49 3 2 18.2271 -0.476913 6.62805
50 3 2 20.657 -0.60331 7.00419
51 3 2 21.7311 -2.80941 7.20711
55 4 3 5.65347 17.6382 8.45389
59 4 1 7.46097 22.0331 9.58023
69 4 2 5.77267 20.9318 9.08623
71 4 2 9.18042 22.995 10.116
70 4 2 6.96892 22.9398 9.2915
11 2 1 -12.5287 -23.3789 12.4901
12 2 1 -11.1861 -23.2935 11.8739
13 2 3 -10.9387 -23.9224 10.8052
14 2 3 -10.2328 -22.9629 12.7654
24 2 2 -13.2426 -23.0236 11.7406
25 2 2 -12.7597 -22.7713 13.4071
26 2 2 -12.7494 -24.4706 12.6759
21 2 1 -7.40806 -23.6086 13.6335
22 2 3 -7.76799 -24.6384 12.9732
23 2 3 -6.22672 -23.7058 14.3671
31 2 2 -5.53918 -24.4118 14.3215
16 2 1 -9.58687 -20.6282 12.426
27 2 2 -10.5269 -20.3523 12.0084
20 2 1 -7.94985 -22.1812 13.3083
28 2 2 -8.92517 -18.5705 12.0356
15 2 1 -9.20637 -22.0087 12.5515
17 2 1 -8.58383 -19.6552 12.138
18 2 1 -7.33547 -19.8764 12.7744
19 2 1 -6.89024 -21.2217 13.1027
29 2 2 -6.55871 -19.1263 12.5953
30 2 2 -6.14765 -21.2123 13.9363
1 1 1 18.8895 7.56728 13.378
2 1 1 19.7612 8.56735 13.2884
3 1 1 20.7814 8.72817 14.3434
6 1 2 18.8562 6.93726 14.2528
7 1 2 18.0494 7.49772 12.7091
8 1 2 19.7069 9.28878 12.4036
5 1 4 22.0726 8.04457 14.1921
9 1 2 22.7243 8.31678 13.4241
10 1 2 22.2359 7.10663 14.655
68 4 2 5.33987 16.1247 10.5379
4 1 3 20.4902 9.23305 15.4224
54 4 1 5.39785 17.9536 9.6454
53 4 1 4.63339 16.9711 10.4228
56 4 3 6.47136 18.5552 10.4132
57 4 1 7.26341 19.6695 10.1082
58 4 1 6.61029 20.9204 9.79553
60 4 1 8.61424 22.143 10.3707
62 4 1 8.48663 19.7309 10.9131
64 4 3 9.46001 17.6497 10.3198
66 4 2 3.80497 16.5876 9.76569
67 4 2 4.26939 17.3925 11.4238
63 4 1 9.17961 18.4416 11.2616
61 4 1 9.27891 20.9241 10.7807
65 4 3 9.9537 18.3374 12.4132
72 4 2 10.0025 21.096 11.5915
73 4 2 10.9423 18.6976 12.4905
ITEM: TIMESTEP
1400
ITEM: NUMBER OF ATOMS
115
ITEM: BOX BOUNDS pp pp pp
-2.8628399999999999e+01 2.8628399999999999e+01
-2.8628399999999999e+01 2.8628399999999999e+01
-2.8628399999999999e+01 2.8628399999999999e+01
ITEM: ATOMS id mol type x y z
74 5 1 12.5821 -12.7709 -12.3191
75 5 1 13.2595 -11.4793 -12.6984
76 5 3 13.2053 -11.2227 -13.9032
77 5 3 14.4539 -11.1789 -12.1099
78 5 1 15.0813 -9.92101 -11.9896
87 5 2 11.5158 -12.6939 -12.4107
88 5 2 12.7399 -12.9093 -11.2697
89 5 2 12.9723 -13.5753 -12.8955
83 5 1 16.3653 -9.96793 -11.22
84 5 1 17.4563 -11.0711 -11.4001
85 5 3 17.1223 -12.2182 -11.1401
86 5 3 18.7766 -10.8926 -10.9598
94 5 2 18.9086 -11.1619 -9.97959
79 5 1 14.2759 -8.79646 -11.7448
80 5 1 14.8863 -7.55076 -11.7951
90 5 2 13.2942 -8.79265 -12.1633
91 5 2 14.291 -6.60284 -11.7015
81 5 1 16.1325 -7.5329 -11.186
82 5 1 16.94 -8.69159 -11.1187
92 5 2 16.5712 -6.60157 -11.1676
93 5 2 17.8997 -8.53338 -10.7463
97 6 3 16.5063 16.8621 -9.91882
112 6 2 18.4651 22.2164 -9.85651
110 6 2 15.5359 16.4744 -7.41322
95 6 1 15.1235 17.2195 -8.08862
108 6 2 14.3049 16.8311 -8.64982
109 6 2 14.7189 18.0618 -7.39699
96 6 1 16.1924 17.6444 -8.96408
98 6 3 17.2539 18.2549 -8.21955
99 6 1 18.259 19.1051 -8.62938
100 6 1 17.7955 20.3053 -9.22031
101 6 1 18.777 21.2787 -9.42503
102 6 1 19.7178 21.4802 -8.44759
103 6 1 20.0952 20.4705 -7.57491
104 6 1 19.2861 19.2602 -7.57268
105 6 1 20.0993 18.0813 -7.03658
106 6 3 19.4916 16.9732 -7.03328
107 6 3 21.2272 18.3725 -6.18943
111 6 2 16.9861 20.3122 -9.90277
114 6 2 20.6509 20.6819 -6.74086
115 6 2 21.8946 17.6834 -5.8443
113 6 2 20.4521 22.2164 -8.79057
32 3 1 15.826 -6.52725 6.45748
45 3 2 14.8276 -6.52305 5.99541
46 3 2 15.759 -6.3188 7.54094
33 3 1 16.6532 -5.42793 5.85847
34 3 3 16.7568 -5.41169 4.61711
35 3 3 17.784 -5.05896 6.64659
36 3 1 18.5227 -3.86495 6.58402
41 3 1 19.9254 -3.94762 7.06077
42 3 1 20.5704 -5.31475 6.99301
43 3 3 20.2869 -6.23458 6.15028
44 3 3 21.8347 -5.6177 7.72575
47 3 2 16.256 -7.52345 6.38208
52 3 2 21.9135 -5.23698 8.65247
37 3 1 17.93 -2.5583 6.66818
38 3 1 18.8146 -1.42278 6.50388
39 3 1 20.0628 -1.5301 7.07437
40 3 1 20.7225 -2.7792 6.94876
48 3 2 16.9974 -2.39939 6.15947
49 3 2 18.3529 -0.43199 6.56787
50 3 2 20.6301 -0.673833 6.9207
51 3 2 21.6682 -2.80619 7.44177
55 4 3 5.71951 17.6622 8.45996
59 4 1 7.47967 22.0209 9.59252
69 4 2 5.85443 20.835 9.08528
71 4 2 9.31843 22.8783 10.2742
70 4 2 6.97779 22.9066 9.34232
11 2 1 -12.5973 -23.4327 12.2815
12 2 1 -11.206 -23.2985 11.7734
13 2 3 -10.8975 -23.939 10.7453
14 2 3 -10.1649 -22.9453 12.7477
24 2 2 -13.3454 -23.1565 11.5209
25 2 2 -12.6811 -22.7547 13.1108
26 2 2 -12.83 -24.4571 12.6626
21 2 1 -7.36926 -23.6009 13.5731
22 2 3 -7.80496 -24.6259 12.9393
23 2 3 -6.20968 -23.7917 14.3184
31 2 2 -5.81362 -24.6771 14.2862
16 2 1 -9.62011 -20.6297 12.4963
27 2 2 -10.5242 -20.4551 12.0007
20 2 1 -7.9613 -22.2265 13.3297
28 2 2 -8.96162 -18.6582 12.2198
15 2 1 -9.13776 -21.9657 12.6494
17 2 1 -8.69543 -19.6828 12.2006
18 2 1 -7.47176 -19.9229 12.8359
19 2 1 -7.02468 -21.2299 13.1461
29 2 2 -6.72053 -19.1365 12.6891
30 2 2 -6.10527 -21.3304 13.6323
1 1 1 18.7736 7.72812 13.4062
2 1 1 19.7385 8.65414 13.3454
3 1 1 20.802 8.72469 14.3586
6 1 2 18.8029 7.01605 14.2615
7 1 2 17.9002 7.70548 12.7057
8 1 2 19.8149 9.41878 12.5421
5 1 4 22.0893 8.13025 14.0851
9 1 2 22.6316 8.44084 13.2633
10 1 2 22.3636 7.32447 14.7195
68 4 2 5.34732 15.9899 10.4389
4 1 3 20.5071 9.18612 15.4449
54 4 1 5.44999 17.9473 9.66613
53 4 1 4.66077 16.8437 10.36
56 4 3 6.50168 18.6221 10.4208
57 4 1 7.3029 19.7045 10.0978
58 4 1 6.65101 20.9204 9.80349
60 4 1 8.64755 22.0799 10.4104
62 4 1 8.42475 19.7274 10.9303
64 4 3 9.5509 17.6175 10.3381
66 4 2 3.80521 16.6642 9.6831
67 4 2 4.31395 17.2344 11.4102
63 4 1 9.1316 18.378 11.2554
61 4 1 9.2432 20.8585 10.8448
65 4 3 9.90827 18.3743 12.4007
72 4 2 10.1303 20.9609 11.5542
73 4 2 10.7377 18.8254 12.4623
ITEM: TIMESTEP
1420
ITEM: NUMBER OF ATOMS
115
ITEM: BOX BOUNDS pp pp pp
-2.8628399999999999e+01 2.8628399999999999e+01
-2.8628399999999999e+01 2.8628399999999999e+01
-2.8628399999999999e+01 2.8628399999999999e+01
ITEM: ATOMS id mol type x y z
74 5 1 12.5835 -12.7094 -12.2657
75 5 1 13.2669 -11.4771 -12.7466
76 5 3 13.2501 -11.183 -13.9677
77 5 3 14.5213 -11.2495 -12.1185
78 5 1 15.1464 -9.9685 -11.9614
87 5 2 11.5321 -12.7916 -12.6717
88 5 2 12.4356 -12.7014 -11.1463
89 5 2 13.2099 -13.6624 -12.4786
83 5 1 16.3315 -9.91997 -11.1957
84 5 1 17.3603 -11.0544 -11.2873
85 5 3 17.0642 -12.2156 -11.0121
86 5 3 18.7084 -10.8666 -11.0067
94 5 2 19.0774 -10.7685 -10.0879
79 5 1 14.2573 -8.89201 -11.6939
80 5 1 14.8655 -7.59949 -11.619
90 5 2 13.3225 -8.90303 -12.2812
91 5 2 14.2087 -6.79398 -11.3952
81 5 1 16.0931 -7.62102 -10.9309
82 5 1 16.9654 -8.6431 -11.251
92 5 2 16.628 -6.61948 -10.8659
93 5 2 17.8636 -8.5373 -10.6831
97 6 3 16.5031 16.8833 -9.90376
112 6 2 18.6239 22.1068 -10.1172
110 6 2 15.3942 16.5268 -7.39086
95 6 1 15.0832 17.2572 -8.10041
108 6 2 14.2983 16.9005 -8.78793
109 6 2 14.6279 18.0709 -7.4872
96 6 1 16.189 17.6966 -9.0022
98 6 3 17.2858 18.2144 -8.24372
99 6 1 18.2956 19.1276 -8.50962
100 6 1 17.8814 20.3323 -9.16741
101 6 1 18.8469 21.2987 -9.38724
102 6 1 19.7507 21.5765 -8.3529
103 6 1 20.1153 20.4787 -7.53744
104 6 1 19.3457 19.3318 -7.53317
105 6 1 20.1038 18.1118 -7.12091
106 6 3 19.5816 16.9711 -6.97736
107 6 3 21.1553 18.2815 -6.28259
111 6 2 17.1399 20.2382 -10.0675
114 6 2 20.5835 20.7818 -6.53896
115 6 2 21.826 17.4913 -6.07543
113 6 2 20.4887 22.4025 -8.45781
32 3 1 15.7959 -6.44551 6.48555
45 3 2 14.9017 -6.61704 5.84648
46 3 2 15.5073 -6.24653 7.51353
33 3 1 16.6997 -5.46037 5.84378
34 3 3 16.7887 -5.45875 4.60023
35 3 3 17.753 -4.97142 6.61138
36 3 1 18.6304 -3.92576 6.38783
41 3 1 19.9134 -4.0683 7.01698
42 3 1 20.6473 -5.3914 6.94978
43 3 3 20.2908 -6.27251 6.13859
44 3 3 21.8021 -5.56919 7.68367
47 3 2 16.3062 -7.40802 6.49099
52 3 2 21.7169 -5.61885 8.68724
37 3 1 17.9881 -2.64542 6.70886
38 3 1 18.7574 -1.48496 6.48278
39 3 1 20.0527 -1.56438 7.06103
40 3 1 20.6599 -2.77617 7.00989
48 3 2 16.8922 -2.51975 6.64978
49 3 2 18.2693 -0.569321 6.54563
50 3 2 20.6383 -0.681069 7.09584
51 3 2 21.5906 -2.76627 7.54678
55 4 3 5.77749 17.652 8.4759
59 4 1 7.55612 22.007 9.58393
69 4 2 5.93606 20.9074 9.09668
71 4 2 9.44069 22.8744 10.2729
70 4 2 6.96753 22.945 9.30086
11 2 1 -12.5828 -23.3924 12.2623
12 2 1 -11.171 -23.2578 11.82
13 2 3 -10.8355 -23.9017 10.7661
14 2 3 -10.1573 -23.083 12.7329
24 2 2 -13.2199 -23.3033 11.4075
25 2 2 -12.8473 -22.6072 13.0051
26 2 2 -12.7967 -24.3794 12.7107
21 2 1 -7.26662 -23.6216 13.4943
22 2 3 -7.75903 -24.6215 12.8312
23 2 3 -6.14613 -23.7917 14.2386
31 2 2 -5.93524 -24.7202 14.5767
16 2 1 -9.67033 -20.7212 12.5087
27 2 2 -10.6818 -20.5236 12.1206
20 2 1 -8.01468 -22.2596 13.3592
28 2 2 -9.01289 -18.7714 12.0138
15 2 1 -9.15651 -22.0729 12.6026
17 2 1 -8.70897 -19.7482 12.2694
18 2 1 -7.49998 -19.8108 12.9915
19 2 1 -7.06563 -21.1269 13.1792
29 2 2 -6.67736 -19.1346 12.789
30 2 2 -6.04534 -21.2449 13.692
1 1 1 18.7415 7.77112 13.3978
2 1 1 19.7351 8.68038 13.3333
3 1 1 20.802 8.84409 14.3315
6 1 2 18.7448 7.11438 14.2318
7 1 2 17.9921 7.7737 12.6317
8 1 2 19.7538 9.31795 12.5033
5 1 4 22.0846 8.23214 14.0799
9 1 2 22.648 8.51514 13.2758
10 1 2 22.2643 7.24456 14.3711
68 4 2 5.40458 15.9621 10.5298
4 1 3 20.5773 9.16932 15.5258
54 4 1 5.46822 17.9063 9.67683
53 4 1 4.7112 16.824 10.3518
56 4 3 6.4498 18.5659 10.4266
57 4 1 7.27449 19.6386 10.1188
58 4 1 6.69872 20.9294 9.78067
60 4 1 8.65361 22.0737 10.4205
62 4 1 8.37148 19.7092 11.0462
64 4 3 9.56473 17.7228 10.346
66 4 2 3.75783 16.4878 9.69798
67 4 2 4.29426 17.2945 11.2674
63 4 1 9.04063 18.3639 11.3144
61 4 1 9.19751 20.796 10.7751
65 4 3 9.85799 18.4577 12.3965
72 4 2 10.063 20.9637 11.4561
73 4 2 10.7836 18.8602 12.338
ITEM: TIMESTEP
1440
ITEM: NUMBER OF ATOMS
115
ITEM: BOX BOUNDS pp pp pp
-2.8628399999999999e+01 2.8628399999999999e+01
-2.8628399999999999e+01 2.8628399999999999e+01
-2.8628399999999999e+01 2.8628399999999999e+01
ITEM: ATOMS id mol type x y z
74 5 1 12.6627 -12.7199 -12.2866
75 5 1 13.3182 -11.503 -12.7591
76 5 3 13.2487 -11.1833 -13.9831
77 5 3 14.5443 -11.2313 -12.0233
78 5 1 15.1248 -10.0081 -11.8372
87 5 2 11.6079 -12.7987 -12.6956
88 5 2 12.5394 -12.6866 -11.1701
89 5 2 13.3288 -13.5293 -12.6338
83 5 1 16.4454 -9.929 -11.2998
84 5 1 17.3995 -11.1217 -11.3133
85 5 3 16.9839 -12.1926 -10.8717
86 5 3 18.7617 -10.8393 -11.0186
94 5 2 19.1559 -10.6447 -10.1455
79 5 1 14.2671 -8.87624 -11.6334
80 5 1 14.8463 -7.62228 -11.4849
90 5 2 13.3426 -8.84626 -12.1913
91 5 2 14.1299 -6.83078 -11.0831
81 5 1 16.1277 -7.54508 -10.9349
82 5 1 17.0278 -8.62203 -11.2742
92 5 2 16.4489 -6.50537 -10.8098
93 5 2 18.0225 -8.4966 -10.7764
97 6 3 16.5175 16.9245 -9.85107
112 6 2 18.5529 22.1073 -10.0469
110 6 2 15.3629 16.532 -7.47094
95 6 1 15.0277 17.3852 -8.11186
108 6 2 14.1588 16.9942 -8.69241
109 6 2 14.732 18.2512 -7.44527
96 6 1 16.2488 17.7174 -8.93639
98 6 3 17.3388 18.2047 -8.17836
99 6 1 18.3141 19.127 -8.52893
100 6 1 17.8491 20.2717 -9.24199
101 6 1 18.8294 21.3249 -9.39594
102 6 1 19.6697 21.6329 -8.3153
103 6 1 20.1694 20.4993 -7.57388
104 6 1 19.3479 19.3071 -7.50415
105 6 1 20.1104 18.0491 -7.15152
106 6 3 19.5197 16.9559 -6.99312
107 6 3 21.2064 18.1598 -6.3252
111 6 2 17.2531 20.1447 -10.0777
114 6 2 20.7741 20.7434 -6.70432
115 6 2 21.7178 17.332 -6.17468
113 6 2 20.4119 22.4487 -8.4164
32 3 1 15.8614 -6.50331 6.49326
45 3 2 14.8953 -6.65326 5.82167
46 3 2 15.5343 -6.2585 7.55118
33 3 1 16.6156 -5.41873 5.85516
34 3 3 16.7509 -5.48972 4.61536
35 3 3 17.7842 -5.06051 6.57392
36 3 1 18.5783 -3.90989 6.42052
41 3 1 19.9015 -4.02805 6.95409
42 3 1 20.7032 -5.30263 6.86676
43 3 3 20.3587 -6.2566 6.1207
44 3 3 21.8219 -5.51229 7.70169
47 3 2 16.3382 -7.52349 6.58251
52 3 2 21.8161 -5.84396 8.6743
37 3 1 17.9515 -2.66929 6.60112
38 3 1 18.7034 -1.55992 6.4703
39 3 1 20.0346 -1.62737 7.02792
40 3 1 20.6731 -2.86795 6.99945
48 3 2 16.8319 -2.50483 6.40194
49 3 2 18.1034 -0.664984 6.59004
50 3 2 20.6799 -0.794697 6.86613
51 3 2 21.6015 -2.89823 7.54839
55 4 3 5.79736 17.5786 8.44671
59 4 1 7.48512 21.937 9.63437
69 4 2 5.66185 20.8894 9.14563
71 4 2 9.26894 22.932 10.2811
70 4 2 7.00734 22.7942 9.20238
11 2 1 -12.5019 -23.3798 12.1806
12 2 1 -11.149 -23.338 11.7492
13 2 3 -10.8447 -23.9462 10.7082
14 2 3 -10.2089 -23.1144 12.777
24 2 2 -13.2679 -23.4945 11.3565
25 2 2 -12.825 -22.5815 12.807
26 2 2 -12.5906 -24.2903 12.7683
21 2 1 -7.31075 -23.5408 13.4805
22 2 3 -7.72793 -24.5685 12.8248
23 2 3 -6.17446 -23.8149 14.2396
31 2 2 -6.14888 -24.6243 14.9051
16 2 1 -9.64998 -20.8152 12.5089
27 2 2 -10.5815 -20.7511 11.9065
20 2 1 -7.94037 -22.2409 13.3542
28 2 2 -9.18196 -18.7736 12.2304
15 2 1 -9.15255 -22.1085 12.6854
17 2 1 -8.78982 -19.7682 12.272
18 2 1 -7.5788 -19.8055 13.0114
19 2 1 -7.00472 -21.1154 13.2508
29 2 2 -6.79854 -18.9946 12.8035
30 2 2 -6.16512 -21.1462 13.9312
1 1 1 18.8319 7.72394 13.5092
2 1 1 19.7701 8.66379 13.3724
3 1 1 20.7961 8.8845 14.3653
6 1 2 18.8493 7.04958 14.3187
7 1 2 18.1015 7.5569 12.7224
8 1 2 19.7376 9.29998 12.4727
5 1 4 22.0992 8.31443 14.0589
9 1 2 22.5212 8.66127 13.1856
10 1 2 22.1979 7.33049 14.2668
68 4 2 5.39275 15.9934 10.5799
4 1 3 20.5747 9.16705 15.5735
54 4 1 5.41323 17.949 9.6243
53 4 1 4.63324 16.8121 10.3928
56 4 3 6.36007 18.5635 10.4265
57 4 1 7.20616 19.6133 10.1418
58 4 1 6.61293 20.843 9.80034
60 4 1 8.60213 22.0766 10.4538
62 4 1 8.41059 19.695 10.9315
64 4 3 9.62471 17.7939 10.3166
66 4 2 3.8243 16.4729 9.69129
67 4 2 4.15679 17.0916 11.3097
63 4 1 9.19619 18.4732 11.2982
61 4 1 9.24001 20.8825 10.771
65 4 3 9.95724 18.4863 12.4375
72 4 2 10.0102 21.0965 11.356
73 4 2 10.7387 19.113 12.5268
ITEM: TIMESTEP
1460
ITEM: NUMBER OF ATOMS
115
ITEM: BOX BOUNDS pp pp pp
-2.8628399999999999e+01 2.8628399999999999e+01
-2.8628399999999999e+01 2.8628399999999999e+01
-2.8628399999999999e+01 2.8628399999999999e+01
ITEM: ATOMS id mol type x y z
74 5 1 12.7733 -12.68 -12.2347
75 5 1 13.3478 -11.3782 -12.6679
76 5 3 13.3516 -11.2069 -13.9149
77 5 3 14.5124 -11.1272 -11.9919
78 5 1 15.1735 -9.88687 -11.9001
87 5 2 11.7463 -12.6473 -12.5327
88 5 2 12.7316 -12.7617 -11.1963
89 5 2 13.4109 -13.4747 -12.6492
83 5 1 16.4615 -9.86086 -11.2364
84 5 1 17.4371 -11.1159 -11.2506
85 5 3 17.0219 -12.2419 -10.9084
86 5 3 18.7385 -10.8725 -10.9551
94 5 2 18.9592 -10.4576 -10.1069
79 5 1 14.313 -8.81979 -11.5303
80 5 1 14.8679 -7.56266 -11.4438
90 5 2 13.3883 -8.81356 -12.0585
91 5 2 14.2227 -6.70301 -11.3269
81 5 1 16.2313 -7.53451 -10.9341
82 5 1 17.0888 -8.6251 -11.217
92 5 2 16.6305 -6.56673 -10.8592
93 5 2 17.9852 -8.52625 -10.7332
97 6 3 16.4866 16.9952 -9.86514
112 6 2 18.3848 22.135 -9.89911
110 6 2 15.1582 16.4496 -7.52472
95 6 1 15.0466 17.3993 -8.07953
108 6 2 14.1297 17.1861 -8.72051
109 6 2 14.8494 18.2223 -7.44208
96 6 1 16.2518 17.7141 -8.89128
98 6 3 17.3629 18.2358 -8.14484
99 6 1 18.3806 19.1601 -8.51561
100 6 1 17.8999 20.2454 -9.12699
101 6 1 18.8246 21.3089 -9.39245
102 6 1 19.6136 21.5999 -8.32931
103 6 1 20.1398 20.4803 -7.58368
104 6 1 19.3882 19.2698 -7.51117
105 6 1 20.2059 18.0147 -7.14551
106 6 3 19.5883 16.8971 -6.9424
107 6 3 21.3534 18.1175 -6.35437
111 6 2 17.1901 20.1274 -9.92545
114 6 2 20.9028 20.6582 -6.8501
115 6 2 21.9078 17.2742 -6.3033
113 6 2 20.3061 22.3897 -8.47341
32 3 1 15.8075 -6.54824 6.57913
45 3 2 14.8662 -6.66028 6.11366
46 3 2 15.6396 -6.22655 7.61809
33 3 1 16.5789 -5.48396 5.85694
34 3 3 16.7145 -5.61023 4.61864
35 3 3 17.7559 -5.1496 6.55554
36 3 1 18.5253 -3.97696 6.48704
41 3 1 19.8883 -4.0622 7.04431
42 3 1 20.7763 -5.27933 6.83386
43 3 3 20.3682 -6.2641 6.1507
44 3 3 21.8336 -5.51301 7.71415
47 3 2 16.3247 -7.51433 6.59692
52 3 2 21.6164 -5.91277 8.62521
37 3 1 17.8623 -2.65525 6.65906
38 3 1 18.746 -1.52231 6.46459
39 3 1 20.0525 -1.62916 7.00017
40 3 1 20.6775 -2.86219 6.86409
48 3 2 16.9446 -2.4596 6.17791
49 3 2 18.2595 -0.551987 6.6075
50 3 2 20.7196 -0.753262 6.78473
51 3 2 21.7686 -2.81687 7.04048
55 4 3 5.84557 17.515 8.51306
59 4 1 7.4722 21.9407 9.54491
69 4 2 5.67554 20.9081 9.21534
71 4 2 9.12802 22.9165 10.2466
70 4 2 6.98421 22.7745 9.22962
11 2 1 -12.5363 -23.5891 12.1085
12 2 1 -11.1545 -23.3754 11.7444
13 2 3 -10.8406 -23.9822 10.663
14 2 3 -10.1919 -23.1416 12.7954
24 2 2 -13.2565 -23.4435 11.2289
25 2 2 -12.8608 -22.8348 12.7609
26 2 2 -12.7464 -24.5373 12.5604
21 2 1 -7.24921 -23.5594 13.4371
22 2 3 -7.77211 -24.5566 12.8447
23 2 3 -6.26819 -23.8906 14.3978
31 2 2 -6.44831 -24.4272 15.2374
16 2 1 -9.78513 -20.7718 12.4856
27 2 2 -10.6864 -20.6409 11.9004
20 2 1 -7.98297 -22.2249 13.4189
28 2 2 -9.04591 -18.699 12.0612
15 2 1 -9.22952 -22.1156 12.7128
17 2 1 -8.77588 -19.7771 12.2985
18 2 1 -7.65786 -19.8589 13.0373
19 2 1 -7.09803 -21.1304 13.1876
29 2 2 -6.97958 -19.0312 12.998
30 2 2 -6.16979 -21.1655 13.7169
1 1 1 18.8492 7.68147 13.5666
2 1 1 19.7266 8.71057 13.4674
3 1 1 20.7724 8.93869 14.4101
6 1 2 18.9011 6.90191 14.3561
7 1 2 18.2137 7.43715 12.685
8 1 2 19.5953 9.28775 12.552
5 1 4 22.0188 8.37827 14.0952
9 1 2 22.5743 8.76964 13.3045
10 1 2 22.3443 7.5332 14.5884
68 4 2 5.18107 16.0273 10.7969
4 1 3 20.5441 9.17344 15.6083
54 4 1 5.47058 17.7973 9.6539
53 4 1 4.63511 16.8694 10.3963
56 4 3 6.32324 18.5503 10.4538
57 4 1 7.19255 19.6138 10.1457
58 4 1 6.58371 20.8633 9.8712
60 4 1 8.54783 22.033 10.4314
62 4 1 8.38362 19.6876 10.9875
64 4 3 9.66948 17.8163 10.2783
66 4 2 3.863 16.4984 9.76904
67 4 2 4.22638 17.4315 11.3045
63 4 1 9.24588 18.4771 11.2873
61 4 1 9.17795 20.8402 10.7341
65 4 3 10.0253 18.4159 12.4668
72 4 2 10.1633 20.9398 11.208
73 4 2 10.7786 18.9934 12.6417
ITEM: TIMESTEP
1480
ITEM: NUMBER OF ATOMS
115
ITEM: BOX BOUNDS pp pp pp
-2.8628399999999999e+01 2.8628399999999999e+01
-2.8628399999999999e+01 2.8628399999999999e+01
-2.8628399999999999e+01 2.8628399999999999e+01
ITEM: ATOMS id mol type x y z
74 5 1 12.7484 -12.6416 -12.2246
75 5 1 13.3669 -11.38 -12.6632
76 5 3 13.3781 -11.1413 -13.8602
77 5 3 14.522 -11.0545 -11.9489
78 5 1 15.1815 -9.86687 -11.8245
87 5 2 11.6156 -12.7686 -12.5819
88 5 2 12.6971 -12.6935 -11.0776
89 5 2 13.4822 -13.5705 -12.546
83 5 1 16.4746 -9.86129 -11.1714
84 5 1 17.421 -11.0744 -11.2343
85 5 3 17.0027 -12.2568 -10.9788
86 5 3 18.745 -10.7883 -10.9465
94 5 2 18.9846 -10.7428 -9.93179
79 5 1 14.29 -8.73982 -11.5892
80 5 1 14.9497 -7.52124 -11.5494
90 5 2 13.2681 -8.71242 -11.9272
91 5 2 14.3584 -6.73099 -11.2825
81 5 1 16.1711 -7.50143 -11.0162
82 5 1 17.0335 -8.58717 -11.2269
92 5 2 16.6813 -6.54251 -11.1117
93 5 2 18.0042 -8.42288 -10.8222
97 6 3 16.5894 17.055 -9.84536
112 6 2 18.3628 22.2714 -9.85497
110 6 2 15.1921 16.4979 -7.38383
95 6 1 15.01 17.2917 -8.01012
108 6 2 14.0731 17.0988 -8.64695
109 6 2 14.8115 18.191 -7.30683
96 6 1 16.2541 17.7134 -8.85289
98 6 3 17.3435 18.1887 -8.11099
99 6 1 18.3898 19.1239 -8.55016
100 6 1 17.8797 20.2999 -9.17762
101 6 1 18.7869 21.3781 -9.30532
102 6 1 19.7618 21.5922 -8.28946
103 6 1 20.2754 20.4353 -7.63219
104 6 1 19.5196 19.2278 -7.59424
105 6 1 20.245 17.9804 -7.12301
106 6 3 19.6301 16.9355 -6.84968
107 6 3 21.3784 18.1747 -6.43159
111 6 2 17.0975 20.283 -9.97654
114 6 2 20.7731 20.6608 -6.67753
115 6 2 22.1298 17.5568 -6.36218
113 6 2 20.4437 22.4729 -8.36616
32 3 1 15.7721 -6.48689 6.62387
45 3 2 14.7626 -6.50043 6.21112
46 3 2 15.5981 -6.22617 7.64626
33 3 1 16.6749 -5.59508 5.86058
34 3 3 16.7283 -5.70039 4.58596
35 3 3 17.7543 -5.16331 6.63834
36 3 1 18.5562 -4.0042 6.54938
41 3 1 19.9079 -4.02429 7.07096
42 3 1 20.7363 -5.24826 6.7951
43 3 3 20.3236 -6.2795 6.18711
44 3 3 21.8318 -5.52174 7.60593
47 3 2 16.2291 -7.55214 6.63875
52 3 2 21.7748 -5.7311 8.58896
37 3 1 17.9758 -2.70862 6.66018
38 3 1 18.7647 -1.53991 6.47512
39 3 1 20.007 -1.60676 6.95599
40 3 1 20.6652 -2.82705 6.80128
48 3 2 16.9556 -2.57568 6.26445
49 3 2 18.2569 -0.635936 6.65112
50 3 2 20.582 -0.738042 6.69981
51 3 2 21.6961 -2.85164 7.08182
55 4 3 5.90195 17.4786 8.54884
59 4 1 7.39802 21.9087 9.52004
69 4 2 5.65574 20.7702 9.29053
71 4 2 9.13794 22.9335 10.0936
70 4 2 6.89074 22.7815 9.18222
11 2 1 -12.5448 -23.5862 12.0211
12 2 1 -11.0948 -23.414 11.7283
13 2 3 -10.6766 -23.9809 10.6857
14 2 3 -10.1303 -23.1277 12.7181
24 2 2 -13.1142 -23.4989 11.0881
25 2 2 -12.9212 -22.8304 12.8205
26 2 2 -12.8126 -24.5996 12.4334
21 2 1 -7.24902 -23.6087 13.4468
22 2 3 -7.73271 -24.5961 12.8257
23 2 3 -6.36786 -24.038 14.4888
31 2 2 -6.73985 -24.3957 15.3221
16 2 1 -9.76883 -20.8029 12.4831
27 2 2 -10.6449 -20.7244 11.842
20 2 1 -8.03608 -22.2428 13.3885
28 2 2 -9.17733 -18.7372 12.0394
15 2 1 -9.21583 -22.0913 12.5736
17 2 1 -8.84015 -19.7667 12.2873
18 2 1 -7.7045 -19.7985 13.1356
19 2 1 -7.14489 -21.1236 13.1882
29 2 2 -6.99431 -19.0156 12.9716
30 2 2 -6.13229 -21.232 13.54
1 1 1 18.7467 7.68319 13.6016
2 1 1 19.6443 8.69248 13.4462
3 1 1 20.7793 8.93983 14.443
6 1 2 18.7409 6.94434 14.3975
7 1 2 17.8272 7.66729 12.9516
8 1 2 19.3964 9.30202 12.6114
5 1 4 22.1038 8.41521 14.186
9 1 2 22.7095 8.63169 13.3474
10 1 2 22.4593 7.53955 14.7395
68 4 2 5.19969 16.1132 10.9639
4 1 3 20.4696 9.18307 15.6549
54 4 1 5.48447 17.8544 9.71103
53 4 1 4.59053 16.9493 10.504
56 4 3 6.40429 18.5337 10.5628
57 4 1 7.22053 19.6197 10.2259
58 4 1 6.56775 20.8078 9.78583
60 4 1 8.50578 22.0647 10.3596
62 4 1 8.43031 19.6749 11.0028
64 4 3 9.68293 17.7172 10.2585
66 4 2 3.84713 16.3509 9.91897
67 4 2 4.05998 17.4754 11.3179
63 4 1 9.17621 18.3553 11.2348
61 4 1 9.18031 20.8297 10.739
65 4 3 10.0348 18.4186 12.3545
72 4 2 10.1127 20.9474 11.2874
73 4 2 10.9228 18.9667 12.3295
ITEM: TIMESTEP
1500
ITEM: NUMBER OF ATOMS
115
ITEM: BOX BOUNDS pp pp pp
-2.8628399999999999e+01 2.8628399999999999e+01
-2.8628399999999999e+01 2.8628399999999999e+01
-2.8628399999999999e+01 2.8628399999999999e+01
ITEM: ATOMS id mol type x y z
74 5 1 12.7377 -12.6538 -12.1838
75 5 1 13.4067 -11.3825 -12.6623
76 5 3 13.4151 -11.052 -13.8616
77 5 3 14.5357 -11.1587 -11.8435
78 5 1 15.182 -9.88138 -11.7845
87 5 2 11.747 -12.8461 -12.6733
88 5 2 12.5755 -12.5334 -11.1032
89 5 2 13.36 -13.4422 -12.2997
83 5 1 16.4415 -9.86841 -11.1261
84 5 1 17.4269 -11.0125 -11.3046
85 5 3 17.0322 -12.1751 -11.1219
86 5 3 18.7655 -10.8515 -10.9109
94 5 2 19.0524 -10.9663 -9.9483
79 5 1 14.3421 -8.64647 -11.7135
80 5 1 14.9376 -7.37068 -11.549
90 5 2 13.3939 -8.57409 -12.2553
91 5 2 14.277 -6.51258 -11.3125
81 5 1 16.2059 -7.42471 -11.0352
82 5 1 17.0785 -8.5573 -11.2521
92 5 2 16.73 -6.54376 -10.9334
93 5 2 18.0706 -8.5885 -10.8189
97 6 3 16.5721 17.0097 -9.82924
112 6 2 18.2098 22.3153 -9.69167
110 6 2 15.3353 16.2765 -7.31702
95 6 1 15.1032 17.2099 -7.99058
108 6 2 14.2912 17.0677 -8.68598
109 6 2 14.7064 18.0495 -7.30496
96 6 1 16.2951 17.6852 -8.80542
98 6 3 17.3395 18.2243 -8.10987
99 6 1 18.3895 19.1073 -8.45795
100 6 1 17.9265 20.3424 -9.02739
101 6 1 18.7532 21.4487 -9.29646
102 6 1 19.6849 21.6289 -8.27919
103 6 1 20.2536 20.5058 -7.64529
104 6 1 19.5708 19.2738 -7.61788
105 6 1 20.2808 17.9969 -7.24321
106 6 3 19.6065 17.0655 -6.75779
107 6 3 21.4701 18.1805 -6.53429
111 6 2 17.1198 20.3266 -9.73773
114 6 2 20.9327 20.7032 -6.79359
115 6 2 22.076 17.4234 -6.31958
113 6 2 20.1287 22.5659 -8.13724
32 3 1 15.7637 -6.55669 6.53876
45 3 2 14.771 -6.62724 6.07061
46 3 2 15.5172 -6.18088 7.60625
33 3 1 16.6857 -5.58582 5.85585
34 3 3 16.7578 -5.76727 4.64276
35 3 3 17.8466 -5.23273 6.6047
36 3 1 18.6061 -4.02136 6.48047
41 3 1 19.9693 -4.09866 7.03012
42 3 1 20.7812 -5.3412 6.71876
43 3 3 20.1634 -6.31919 6.24908
44 3 3 21.8326 -5.52881 7.60602
47 3 2 16.2445 -7.54863 6.6798
52 3 2 21.6903 -5.79986 8.58729
37 3 1 17.9135 -2.77098 6.58365
38 3 1 18.6887 -1.61677 6.44053
39 3 1 20.018 -1.64335 6.91434
40 3 1 20.7384 -2.89548 6.85736
48 3 2 16.9855 -2.71749 6.02854
49 3 2 18.1134 -0.66685 6.37609
50 3 2 20.6493 -0.730118 6.82283
51 3 2 21.601 -2.90082 7.40233
55 4 3 5.77862 17.4779 8.61951
59 4 1 7.40926 21.8919 9.48435
69 4 2 5.78212 20.6797 9.03265
71 4 2 8.96645 23.028 10.2587
70 4 2 6.83001 22.8084 9.11173
11 2 1 -12.5342 -23.4664 11.9616
12 2 1 -11.0982 -23.458 11.6276
13 2 3 -10.601 -24.0749 10.6351
14 2 3 -10.2213 -23.0596 12.6248
24 2 2 -13.1473 -23.4019 11.0591
25 2 2 -12.8415 -22.5504 12.5965
26 2 2 -12.8852 -24.3998 12.5171
21 2 1 -7.26653 -23.697 13.4133
22 2 3 -7.71365 -24.7112 12.7909
23 2 3 -6.44377 -23.9357 14.5067
31 2 2 -6.71162 -24.6359 15.2682
16 2 1 -9.62498 -20.8511 12.451
27 2 2 -10.5791 -20.6684 12.0175
20 2 1 -7.90064 -22.2792 13.2721
28 2 2 -9.28198 -18.8289 12.2051
15 2 1 -9.16185 -22.1262 12.536
17 2 1 -8.8327 -19.7418 12.3244
18 2 1 -7.671 -19.8423 13.0712
19 2 1 -7.05337 -21.1157 13.1963
29 2 2 -6.93231 -19.0347 12.9224
30 2 2 -6.30515 -21.1292 13.9673
1 1 1 18.5968 7.80127 13.7059
2 1 1 19.6039 8.68921 13.5591
3 1 1 20.7247 8.85942 14.456
6 1 2 18.4573 7.15553 14.5591
7 1 2 17.7916 7.66411 13.0086
8 1 2 19.5735 9.23344 12.6235
5 1 4 22.0631 8.5393 14.209
9 1 2 22.5145 8.77251 13.2862
10 1 2 22.2626 7.6312 14.6262
68 4 2 5.33384 16.1447 10.9784
4 1 3 20.4575 9.1376 15.6291
54 4 1 5.41198 17.9419 9.74721
53 4 1 4.64231 16.9607 10.5284
56 4 3 6.42049 18.5127 10.527
57 4 1 7.21035 19.5861 10.1693
58 4 1 6.59104 20.7695 9.75525
60 4 1 8.46609 22.0555 10.268
62 4 1 8.43744 19.6696 10.9749
64 4 3 9.63584 17.695 10.3076
66 4 2 3.98199 16.2389 9.90173
67 4 2 4.0543 17.4349 11.3476
63 4 1 9.16077 18.4073 11.257
61 4 1 9.1943 20.8794 10.6881
65 4 3 9.99692 18.4453 12.3225
72 4 2 10.0681 21.0798 11.2787
73 4 2 10.9273 18.7689 12.283
ITEM: TIMESTEP
1520
ITEM: NUMBER OF ATOMS
115
ITEM: BOX BOUNDS pp pp pp
-2.8628399999999999e+01 2.8628399999999999e+01
-2.8628399999999999e+01 2.8628399999999999e+01
-2.8628399999999999e+01 2.8628399999999999e+01
ITEM: ATOMS id mol type x y z
74 5 1 12.6464 -12.6889 -12.1635
75 5 1 13.3865 -11.4139 -12.5933
76 5 3 13.4525 -11.0764 -13.8337
77 5 3 14.4413 -11.0552 -11.7903
78 5 1 15.1864 -9.85452 -11.7797
87 5 2 11.7931 -12.6404 -12.8196
88 5 2 12.3057 -12.6268 -11.0999
89 5 2 13.3154 -13.5208 -12.2346
83 5 1 16.4904 -9.79441 -11.1425
84 5 1 17.4201 -11.0114 -11.3153
85 5 3 16.9324 -12.1938 -11.2816
86 5 3 18.7011 -10.9098 -10.8866
94 5 2 18.9624 -10.8798 -9.91512
79 5 1 14.4326 -8.67083 -11.7436
80 5 1 15.106 -7.42734 -11.651
90 5 2 13.4694 -8.59305 -12.2495
91 5 2 14.3923 -6.62691 -11.5843
81 5 1 16.2761 -7.40764 -10.8524
82 5 1 17.1149 -8.48897 -11.1187
92 5 2 16.8658 -6.51118 -10.7621
93 5 2 18.0871 -8.56645 -10.6863
97 6 3 16.5106 16.985 -9.81939
112 6 2 18.1705 22.3861 -9.567
110 6 2 15.3733 16.4303 -7.25685
95 6 1 15.078 17.1404 -8.02049
108 6 2 14.2438 16.7549 -8.63493
109 6 2 14.6138 17.8926 -7.39411
96 6 1 16.2882 17.645 -8.77575
98 6 3 17.3687 18.2623 -8.0254
99 6 1 18.3422 19.1904 -8.5311
100 6 1 17.7733 20.4338 -8.97471
101 6 1 18.6276 21.5231 -9.14325
102 6 1 19.585 21.645 -8.11945
103 6 1 20.2544 20.4613 -7.67838
104 6 1 19.5184 19.226 -7.65487
105 6 1 20.2913 17.96 -7.21083
106 6 3 19.6022 17.1165 -6.72309
107 6 3 21.5411 18.0866 -6.57484
111 6 2 16.981 20.3679 -9.69261
114 6 2 20.771 20.6496 -6.82335
115 6 2 22.0795 17.2352 -6.31439
113 6 2 20.2843 22.3886 -8.2709
32 3 1 15.8595 -6.59129 6.53865
45 3 2 14.8122 -6.6117 6.0678
46 3 2 15.6853 -6.35974 7.6563
33 3 1 16.6624 -5.57904 5.86697
34 3 3 16.8208 -5.80183 4.66056
35 3 3 17.8256 -5.1761 6.59104
36 3 1 18.6108 -4.04881 6.39437
41 3 1 19.9798 -4.08387 6.92891
42 3 1 20.811 -5.34686 6.66585
43 3 3 20.2952 -6.38434 6.25989
44 3 3 21.7959 -5.53809 7.58256
47 3 2 16.3452 -7.58569 6.53653
52 3 2 21.5773 -5.51422 8.61466
37 3 1 17.9371 -2.79586 6.41457
38 3 1 18.7511 -1.71111 6.25099
39 3 1 19.9951 -1.72304 6.96216
40 3 1 20.7452 -2.87942 6.80654
48 3 2 17.0066 -2.80047 5.94797
49 3 2 18.2033 -0.710222 6.26547
50 3 2 20.547 -0.810288 7.04732
51 3 2 21.7781 -2.79315 7.18521
55 4 3 5.83767 17.4983 8.57329
59 4 1 7.4132 21.9521 9.4528
69 4 2 5.7835 20.7519 8.95925
71 4 2 9.32552 22.8056 10.0415
70 4 2 6.85297 22.8313 9.17731
11 2 1 -12.5185 -23.4559 11.9519
12 2 1 -11.0609 -23.491 11.5987
13 2 3 -10.6208 -24.0585 10.5265
14 2 3 -10.1442 -23.1847 12.6185
24 2 2 -13.2158 -23.3059 11.0808
25 2 2 -12.7165 -22.5912 12.5928
26 2 2 -12.87 -24.3922 12.4282
21 2 1 -7.23182 -23.6472 13.3952
22 2 3 -7.66089 -24.6906 12.8351
23 2 3 -6.45017 -23.7922 14.5135
31 2 2 -6.73664 -24.4633 15.2296
16 2 1 -9.65614 -20.7977 12.4061
27 2 2 -10.4928 -20.565 11.8018
20 2 1 -7.89446 -22.3147 13.2152
28 2 2 -9.13516 -18.7361 12.2268
15 2 1 -9.15868 -22.1613 12.4436
17 2 1 -8.70069 -19.7642 12.3336
18 2 1 -7.52987 -19.8512 13.0662
19 2 1 -7.00134 -21.1555 13.1704
29 2 2 -6.84671 -19.1042 13.1219
30 2 2 -6.10564 -21.2027 13.7352
1 1 1 18.5083 7.87807 13.8354
2 1 1 19.6314 8.59265 13.5675
3 1 1 20.7031 8.90875 14.4913
6 1 2 18.3824 7.42793 14.8131
7 1 2 17.7593 7.67305 13.0785
8 1 2 19.7047 8.99384 12.5718
5 1 4 22.0346 8.53995 14.1155
9 1 2 22.5534 9.12986 13.4087
10 1 2 22.5968 7.80499 14.6403
68 4 2 5.12658 16.0891 10.9198
4 1 3 20.4427 9.11021 15.7508
54 4 1 5.46406 17.8485 9.71155
53 4 1 4.59078 16.972 10.5591
56 4 3 6.36433 18.5706 10.4685
57 4 1 7.24517 19.5967 10.1341
58 4 1 6.62958 20.8365 9.67675
60 4 1 8.5549 22.0436 10.2873
62 4 1 8.38038 19.7416 10.9578
64 4 3 9.60878 17.792 10.3204
66 4 2 3.78873 16.5414 9.92778
67 4 2 4.12786 17.4839 11.448
63 4 1 9.22351 18.5221 11.2472
61 4 1 9.23423 20.8919 10.6599
65 4 3 10.0533 18.5213 12.3747
72 4 2 10.0671 21.1371 11.2708
73 4 2 10.939 18.9719 12.3907
ITEM: TIMESTEP
1540
ITEM: NUMBER OF ATOMS
115
ITEM: BOX BOUNDS pp pp pp
-2.8628399999999999e+01 2.8628399999999999e+01
-2.8628399999999999e+01 2.8628399999999999e+01
-2.8628399999999999e+01 2.8628399999999999e+01
ITEM: ATOMS id mol type x y z
74 5 1 12.5966 -12.6169 -12.2535
75 5 1 13.3066 -11.3441 -12.5809
76 5 3 13.4835 -11.1888 -13.8207
77 5 3 14.3866 -10.9676 -11.737
78 5 1 15.2506 -9.80652 -11.8701
87 5 2 11.6572 -12.7498 -12.8198
88 5 2 12.4706 -12.5992 -11.1313
89 5 2 13.3675 -13.4736 -12.4625
83 5 1 16.5021 -9.809 -11.1784
84 5 1 17.4048 -11.01 -11.3174
85 5 3 16.8769 -12.1764 -11.3699
86 5 3 18.6681 -10.9222 -10.8256
94 5 2 18.8186 -10.8427 -9.81388
79 5 1 14.5147 -8.62021 -11.7828
80 5 1 15.191 -7.41694 -11.6077
90 5 2 13.7105 -8.55443 -12.4259
91 5 2 14.5905 -6.57926 -11.6546
81 5 1 16.281 -7.42235 -10.8363
82 5 1 17.1371 -8.50566 -11.0315
92 5 2 16.7686 -6.46019 -10.6714
93 5 2 18.1354 -8.49861 -10.5259
97 6 3 16.5476 17.0665 -9.82762
112 6 2 18.0682 22.4376 -9.20301
110 6 2 15.4306 16.2821 -7.45159
95 6 1 15.0654 17.1815 -8.03457
108 6 2 14.2345 16.913 -8.67439
109 6 2 14.7009 17.8707 -7.2415
96 6 1 16.2359 17.7278 -8.81355
98 6 3 17.2961 18.3241 -8.16281
99 6 1 18.3361 19.2116 -8.53102
100 6 1 17.7029 20.374 -8.97103
101 6 1 18.5876 21.5142 -8.96205
102 6 1 19.557 21.5973 -8.0312
103 6 1 20.2917 20.4536 -7.70798
104 6 1 19.4732 19.2953 -7.59735
105 6 1 20.2192 17.9824 -7.14311
106 6 3 19.5495 17.04 -6.65566
107 6 3 21.5422 18.0542 -6.60675
111 6 2 16.9602 20.383 -9.77211
114 6 2 21.1365 20.5923 -7.06027
115 6 2 22.1312 17.1955 -6.50688
113 6 2 20.1021 22.5699 -7.87247
32 3 1 15.9049 -6.65776 6.59179
45 3 2 14.851 -6.81852 6.07865
46 3 2 15.7548 -6.39848 7.6277
33 3 1 16.6575 -5.60501 5.86697
34 3 3 16.8147 -5.74305 4.6378
35 3 3 17.8407 -5.19168 6.62838
36 3 1 18.6406 -4.10645 6.30222
41 3 1 19.9599 -4.11706 6.83574
42 3 1 20.8162 -5.40755 6.66629
43 3 3 20.27 -6.46813 6.24094
44 3 3 21.8376 -5.49115 7.58525
47 3 2 16.4884 -7.57833 6.55746
52 3 2 21.7285 -5.77331 8.57007
37 3 1 18.0049 -2.80716 6.23951
38 3 1 18.774 -1.62903 6.2756
39 3 1 20.054 -1.73489 6.93897
40 3 1 20.7431 -2.96251 6.73163
48 3 2 17.1198 -2.68809 5.65722
49 3 2 18.2612 -0.635322 6.27823
50 3 2 20.6984 -0.905596 6.79143
51 3 2 21.7165 -2.9827 7.21507
55 4 3 5.82435 17.4877 8.5213
59 4 1 7.46385 21.9397 9.46917
69 4 2 5.74588 20.7468 8.9872
71 4 2 9.15848 22.9711 10.1631
70 4 2 6.94354 22.8556 9.16154
11 2 1 -12.4807 -23.4453 11.8688
12 2 1 -11.0492 -23.4361 11.6003
13 2 3 -10.7092 -23.9992 10.5286
14 2 3 -10.1447 -23.2025 12.6178
24 2 2 -13.1497 -23.1964 10.9786
25 2 2 -12.7327 -22.7598 12.7155
26 2 2 -12.6573 -24.4684 12.1282
21 2 1 -7.25853 -23.5767 13.4457
22 2 3 -7.61305 -24.638 12.7968
23 2 3 -6.4252 -23.8059 14.5712
31 2 2 -6.81847 -23.8234 15.4933
16 2 1 -9.63665 -20.8596 12.2434
27 2 2 -10.6203 -20.6601 11.7997
20 2 1 -7.95177 -22.2529 13.2821
28 2 2 -9.20097 -18.733 12.3298
15 2 1 -9.12361 -22.1783 12.4569
17 2 1 -8.75421 -19.7503 12.3967
18 2 1 -7.5496 -19.8738 13.1149
19 2 1 -7.07419 -21.175 13.1621
29 2 2 -6.75122 -19.177 12.8651
30 2 2 -6.16898 -21.3241 13.6874
1 1 1 18.5184 7.93521 13.918
2 1 1 19.6368 8.53759 13.5243
3 1 1 20.7206 8.83103 14.4979
6 1 2 18.2429 7.77437 14.8762
7 1 2 17.7469 7.57125 13.1905
8 1 2 19.752 8.79637 12.4207
5 1 4 22.079 8.6222 14.1713
9 1 2 22.54 9.25392 13.4454
10 1 2 22.6911 7.92101 14.5819
68 4 2 5.06195 16.0792 10.7894
4 1 3 20.4367 9.04496 15.7289
54 4 1 5.48909 17.8798 9.69033
53 4 1 4.57737 16.9556 10.4754
56 4 3 6.40236 18.6244 10.5294
57 4 1 7.26163 19.6493 10.127
58 4 1 6.60459 20.8614 9.65734
60 4 1 8.5316 22.1312 10.3197
62 4 1 8.39048 19.8121 10.9586
64 4 3 9.59558 17.8115 10.2804
66 4 2 3.64624 16.6619 9.91314
67 4 2 4.18214 17.5263 11.3907
63 4 1 9.26656 18.5464 11.273
61 4 1 9.19936 20.9597 10.7036
65 4 3 10.0529 18.5884 12.3846
72 4 2 10.1081 21.1305 11.2574
73 4 2 10.8899 19.1486 12.3765
ITEM: TIMESTEP
1560
ITEM: NUMBER OF ATOMS
115
ITEM: BOX BOUNDS pp pp pp
-2.8628399999999999e+01 2.8628399999999999e+01
-2.8628399999999999e+01 2.8628399999999999e+01
-2.8628399999999999e+01 2.8628399999999999e+01
ITEM: ATOMS id mol type x y z
74 5 1 12.6508 -12.552 -12.1621
75 5 1 13.3937 -11.3115 -12.6326
76 5 3 13.4035 -11.2275 -13.8799
77 5 3 14.4296 -10.8784 -11.78
78 5 1 15.2322 -9.77656 -11.9208
87 5 2 11.6418 -12.6144 -12.6638
88 5 2 12.5147 -12.6094 -11.1071
89 5 2 13.3335 -13.3991 -12.4416
83 5 1 16.5093 -9.80723 -11.203
84 5 1 17.397 -11.0173 -11.2809
85 5 3 16.8828 -12.148 -11.2374
86 5 3 18.7103 -11.0055 -10.7491
94 5 2 18.8877 -11.0287 -9.78534
79 5 1 14.4908 -8.57326 -11.8308
80 5 1 15.1637 -7.36588 -11.6426
90 5 2 13.5609 -8.52197 -12.5329
91 5 2 14.4967 -6.47745 -11.6284
81 5 1 16.2984 -7.44386 -10.8628
82 5 1 17.1707 -8.53428 -11.0523
92 5 2 16.8281 -6.53066 -10.7042
93 5 2 18.0658 -8.5687 -10.4315
97 6 3 16.5574 17.105 -9.828
112 6 2 18.1134 22.489 -9.27667
110 6 2 15.4848 16.1739 -7.61625
95 6 1 15.1418 17.2228 -7.98179
108 6 2 14.1698 17.0866 -8.55082
109 6 2 14.8804 17.8297 -7.05598
96 6 1 16.2099 17.8363 -8.86174
98 6 3 17.2684 18.3187 -8.10674
99 6 1 18.3179 19.1999 -8.47601
100 6 1 17.7615 20.4253 -8.96952
101 6 1 18.5594 21.6109 -8.85432
102 6 1 19.5043 21.6169 -7.81817
103 6 1 20.2953 20.4596 -7.76802
104 6 1 19.5201 19.3184 -7.60941
105 6 1 20.1852 18.027 -7.0893
106 6 3 19.4509 17.0394 -6.74351
107 6 3 21.5003 18.0177 -6.65037
111 6 2 17.0525 20.3873 -9.67947
114 6 2 21.1328 20.508 -7.03995
115 6 2 22.0493 17.2255 -6.65496
113 6 2 20.0432 22.5155 -7.72746
32 3 1 15.8956 -6.63863 6.62175
45 3 2 15.0328 -6.78655 5.9723
46 3 2 15.5489 -6.2171 7.5313
33 3 1 16.7218 -5.65491 5.90348
34 3 3 16.7682 -5.67037 4.64142
35 3 3 17.8935 -5.23882 6.52169
36 3 1 18.6834 -4.12065 6.19081
41 3 1 19.9673 -4.21255 6.81875
42 3 1 20.8615 -5.41822 6.64801
43 3 3 20.2869 -6.44884 6.27988
44 3 3 21.8782 -5.62077 7.51953
47 3 2 16.356 -7.63064 6.89804
52 3 2 21.7447 -6.11382 8.39059
37 3 1 17.9405 -2.83767 6.33474
38 3 1 18.7733 -1.67299 6.37029
39 3 1 20.0485 -1.78091 6.81333
40 3 1 20.7402 -3.01773 6.70837
48 3 2 16.9444 -2.69748 5.83806
49 3 2 18.3202 -0.696538 6.49621
50 3 2 20.5439 -0.900227 7.13456
51 3 2 21.6696 -2.97642 7.23999
55 4 3 5.74328 17.5766 8.54532
59 4 1 7.38799 21.9563 9.47656
69 4 2 5.74959 20.6459 8.99001
71 4 2 9.05692 23.1041 10.1182
70 4 2 6.75845 22.8072 9.19454
11 2 1 -12.5613 -23.4662 11.7897
12 2 1 -11.0535 -23.4029 11.5396
13 2 3 -10.5939 -24.0208 10.5327
14 2 3 -10.2202 -23.0899 12.5936
24 2 2 -13.1308 -23.4064 10.7938
25 2 2 -12.8962 -22.5964 12.3852
26 2 2 -12.8371 -24.3514 12.3189
21 2 1 -7.31472 -23.5923 13.5431
22 2 3 -7.54814 -24.5801 12.7641
23 2 3 -6.41608 -23.8102 14.5732
31 2 2 -6.65188 -23.7687 15.5587
16 2 1 -9.65981 -20.8674 12.2856
27 2 2 -10.3662 -20.7576 11.481
20 2 1 -7.97488 -22.2587 13.3329
28 2 2 -9.20209 -18.8277 12.4234
15 2 1 -9.15206 -22.1643 12.5133
17 2 1 -8.82359 -19.7896 12.2547
18 2 1 -7.63306 -19.9315 12.9581
19 2 1 -6.97175 -21.172 13.0778
29 2 2 -7.06969 -18.9943 13.2012
30 2 2 -5.94953 -21.1588 13.5726
1 1 1 18.4696 7.91442 13.922
2 1 1 19.6339 8.43347 13.55
3 1 1 20.7102 8.83595 14.4884
6 1 2 18.2899 7.65797 14.9669
7 1 2 17.7627 7.78665 13.1461
8 1 2 19.7072 8.70598 12.5328
5 1 4 22.108 8.73088 14.225
9 1 2 22.5582 9.16491 13.4212
10 1 2 22.5864 7.88721 14.4481
68 4 2 5.18381 15.9935 10.5562
4 1 3 20.333 8.97914 15.7161
54 4 1 5.44105 17.9379 9.70239
53 4 1 4.62147 16.8973 10.3588
56 4 3 6.40378 18.5448 10.4308
57 4 1 7.25885 19.6297 10.1612
58 4 1 6.62347 20.8064 9.6376
60 4 1 8.50482 22.1901 10.3003
62 4 1 8.45027 19.867 10.964
64 4 3 9.56453 17.8243 10.3859
66 4 2 3.80892 16.53 9.63808
67 4 2 4.14287 17.2749 11.2666
63 4 1 9.19084 18.5768 11.3044
61 4 1 9.24075 20.9842 10.7472
65 4 3 10.0998 18.5627 12.3374
72 4 2 10.2118 21.1307 11.2731
73 4 2 10.9889 18.9713 12.4568
ITEM: TIMESTEP
1580
ITEM: NUMBER OF ATOMS
115
ITEM: BOX BOUNDS pp pp pp
-2.8628399999999999e+01 2.8628399999999999e+01
-2.8628399999999999e+01 2.8628399999999999e+01
-2.8628399999999999e+01 2.8628399999999999e+01
ITEM: ATOMS id mol type x y z
74 5 1 12.6708 -12.599 -12.0876
75 5 1 13.4039 -11.3764 -12.6332
76 5 3 13.4077 -11.1562 -13.8609
77 5 3 14.4421 -10.8883 -11.825
78 5 1 15.2497 -9.69855 -11.8924
87 5 2 11.6615 -12.6478 -12.5971
88 5 2 12.5107 -12.3695 -11.0128
89 5 2 13.1592 -13.565 -12.1619
83 5 1 16.5043 -9.7828 -11.1388
84 5 1 17.4599 -10.9821 -11.2333
85 5 3 16.9814 -12.1202 -11.2779
86 5 3 18.7584 -10.9636 -10.7075
94 5 2 18.8275 -10.8541 -9.69003
79 5 1 14.5413 -8.50471 -11.8824
80 5 1 15.2414 -7.31802 -11.6485
90 5 2 13.69 -8.38942 -12.6166
91 5 2 14.5795 -6.55074 -11.3676
81 5 1 16.397 -7.36314 -10.9571
82 5 1 17.2044 -8.5128 -11.0938
92 5 2 16.905 -6.43907 -10.7811
93 5 2 18.1153 -8.51215 -10.4906
97 6 3 16.5653 17.1101 -9.81866
112 6 2 17.9378 22.4824 -9.12817
110 6 2 15.5734 16.2008 -7.50856
95 6 1 15.2158 17.1895 -7.9911
108 6 2 14.2715 17.0266 -8.53131
109 6 2 15.0374 17.9264 -7.21687
96 6 1 16.2769 17.7745 -8.79601
98 6 3 17.3373 18.3127 -8.02214
99 6 1 18.2971 19.2593 -8.47095
100 6 1 17.7912 20.5086 -8.90726
101 6 1 18.5559 21.6495 -8.8986
102 6 1 19.5562 21.6836 -7.91918
103 6 1 20.1982 20.4568 -7.68706
104 6 1 19.413 19.2877 -7.54966
105 6 1 20.1449 18.0041 -7.15925
106 6 3 19.4761 17.021 -6.73282
107 6 3 21.444 18.0378 -6.67147
111 6 2 17.0741 20.3916 -9.70013
114 6 2 21.1127 20.5377 -7.20581
115 6 2 22.1063 17.2541 -6.93693
113 6 2 20.1972 22.5811 -7.93747
32 3 1 15.8607 -6.5715 6.63308
45 3 2 14.9152 -6.65565 6.18568
46 3 2 15.6983 -6.26873 7.69732
33 3 1 16.7239 -5.59865 5.8833
34 3 3 16.7239 -5.6546 4.59855
35 3 3 17.894 -5.20708 6.50842
36 3 1 18.7408 -4.08195 6.20035
41 3 1 20.0139 -4.13751 6.77749
42 3 1 20.7807 -5.44115 6.6513
43 3 3 20.2971 -6.51096 6.17413
44 3 3 21.8788 -5.67412 7.51346
47 3 2 16.3643 -7.61612 6.67977
52 3 2 21.6584 -6.06811 8.39252
37 3 1 18.0325 -2.85195 6.37409
38 3 1 18.7201 -1.68278 6.40747
39 3 1 20.0367 -1.80697 6.94485
40 3 1 20.7581 -2.98544 6.6524
48 3 2 16.9925 -2.80297 6.00093
49 3 2 18.1087 -0.794952 6.69584
50 3 2 20.5533 -0.87716 6.97781
51 3 2 21.7821 -2.9585 7.03911
55 4 3 5.75703 17.7016 8.45536
59 4 1 7.37709 22.0115 9.50381
69 4 2 5.85758 20.7306 9.00018
71 4 2 9.02711 23.1196 10.2483
70 4 2 6.7599 22.7993 9.32844
11 2 1 -12.6058 -23.5072 11.7005
12 2 1 -11.1124 -23.4313 11.5203
13 2 3 -10.5351 -24.0287 10.5511
14 2 3 -10.2741 -23.0865 12.5668
24 2 2 -13.092 -23.4662 10.6988
25 2 2 -12.8949 -22.5947 12.1777
26 2 2 -12.9456 -24.4343 12.2872
21 2 1 -7.44822 -23.645 13.6423
22 2 3 -7.51382 -24.4478 12.6761
23 2 3 -6.47005 -23.8335 14.637
31 2 2 -6.64611 -23.5495 15.6245
16 2 1 -9.72996 -20.807 12.2422
27 2 2 -10.6243 -20.6754 11.6969
20 2 1 -7.96983 -22.3163 13.2132
28 2 2 -9.05992 -18.7508 12.0485
15 2 1 -9.22608 -22.1117 12.4804
17 2 1 -8.79741 -19.7492 12.1887
18 2 1 -7.57946 -19.9067 12.9924
19 2 1 -7.04993 -21.2898 13.0216
29 2 2 -6.84988 -19.1914 12.7458
30 2 2 -6.10209 -21.4847 13.4845
1 1 1 18.4238 7.91454 13.8952
2 1 1 19.5788 8.48786 13.5578
3 1 1 20.6045 8.90544 14.4917
6 1 2 18.1668 7.82145 14.9691
7 1 2 17.7955 7.49166 13.1461
8 1 2 19.9011 8.52836 12.5346
5 1 4 22.0156 8.77071 14.1725
9 1 2 22.3842 9.0889 13.1904
10 1 2 22.7234 8.10046 14.738
68 4 2 5.24626 15.8483 10.4874
4 1 3 20.313 9.02607 15.7385
54 4 1 5.37606 17.9398 9.64141
53 4 1 4.57686 16.8185 10.3326
56 4 3 6.41004 18.5453 10.4859
57 4 1 7.2998 19.6385 10.1651
58 4 1 6.64773 20.8608 9.73824
60 4 1 8.49621 22.1307 10.3388
62 4 1 8.42455 19.8304 11.0567
64 4 3 9.60069 17.8735 10.3844
66 4 2 3.65208 16.5369 9.87616
67 4 2 4.36975 17.2006 11.3498
63 4 1 9.27451 18.5935 11.3356
61 4 1 9.15531 20.9913 10.7981
65 4 3 10.1206 18.5274 12.4502
72 4 2 9.89443 21.1879 11.5214
73 4 2 11.1029 18.6883 12.4613
ITEM: TIMESTEP
1600
ITEM: NUMBER OF ATOMS
115
ITEM: BOX BOUNDS pp pp pp
-2.8628399999999999e+01 2.8628399999999999e+01
-2.8628399999999999e+01 2.8628399999999999e+01
-2.8628399999999999e+01 2.8628399999999999e+01
ITEM: ATOMS id mol type x y z
74 5 1 12.678 -12.629 -12.1723
75 5 1 13.3601 -11.3949 -12.6284
76 5 3 13.3605 -11.093 -13.8585
77 5 3 14.4897 -10.9717 -11.8307
78 5 1 15.292 -9.76204 -11.9406
87 5 2 11.6992 -12.7676 -12.7084
88 5 2 12.4978 -12.6767 -11.1258
89 5 2 13.3506 -13.4389 -12.4682
83 5 1 16.5724 -9.73082 -11.2009
84 5 1 17.4733 -10.9385 -11.2912
85 5 3 17.077 -12.1123 -11.3044
86 5 3 18.7908 -10.8522 -10.7002
94 5 2 18.7386 -10.7013 -9.66835
79 5 1 14.5449 -8.51716 -11.9505
80 5 1 15.2344 -7.25289 -11.7018
90 5 2 13.6611 -8.49411 -12.4798
91 5 2 14.5486 -6.36995 -11.5436
81 5 1 16.4039 -7.32407 -10.9933
82 5 1 17.1924 -8.4449 -11.0824
92 5 2 16.9724 -6.39783 -10.8466
93 5 2 18.0402 -8.43717 -10.412
97 6 3 16.636 17.2193 -9.87387
112 6 2 18.0089 22.5329 -9.08484
110 6 2 15.4124 16.1672 -7.55588
95 6 1 15.1369 17.1692 -7.95502
108 6 2 14.2373 16.984 -8.61713
109 6 2 14.8417 17.906 -7.16436
96 6 1 16.2561 17.7735 -8.81056
98 6 3 17.2683 18.3389 -7.98876
99 6 1 18.3046 19.21 -8.37328
100 6 1 17.7389 20.5169 -8.87211
101 6 1 18.5966 21.6894 -8.90963
102 6 1 19.625 21.7142 -7.95544
103 6 1 20.2464 20.5008 -7.64141
104 6 1 19.4135 19.3202 -7.52412
105 6 1 20.0722 18.0493 -7.1245
106 6 3 19.4848 17.0696 -6.62764
107 6 3 21.4528 18.1559 -6.79774
111 6 2 16.8424 20.4181 -9.5888
114 6 2 20.9245 20.7058 -6.79821
115 6 2 22.0743 17.3774 -6.74941
113 6 2 20.1835 22.5725 -7.98801
32 3 1 15.8668 -6.45726 6.60854
45 3 2 14.8666 -6.57857 6.32767
46 3 2 15.9403 -6.2873 7.73328
33 3 1 16.6914 -5.4953 5.89188
34 3 3 16.7531 -5.74526 4.66089
35 3 3 17.8858 -5.16504 6.47233
36 3 1 18.6832 -4.06629 6.24511
41 3 1 20.0102 -4.13943 6.71319
42 3 1 20.7515 -5.49667 6.67657
43 3 3 20.3172 -6.53118 6.05928
44 3 3 21.86 -5.60769 7.50504
47 3 2 16.3441 -7.41308 6.44249
52 3 2 21.765 -6.11227 8.41752
37 3 1 18.0763 -2.80753 6.41925
38 3 1 18.7861 -1.67399 6.49295
39 3 1 20.1376 -1.70122 7.00531
40 3 1 20.79 -2.92079 6.57445
48 3 2 17.0927 -2.7652 5.9016
49 3 2 18.2326 -0.755109 6.60651
50 3 2 20.6886 -0.715541 6.92099
51 3 2 21.8232 -2.9632 6.95473
55 4 3 5.73824 17.7479 8.45141
59 4 1 7.40113 21.9655 9.50728
69 4 2 5.65406 20.7488 9.09309
71 4 2 9.139 23.0086 10.0241
70 4 2 6.75289 22.9012 9.258
11 2 1 -12.5872 -23.5055 11.669
12 2 1 -11.1057 -23.4364 11.4713
13 2 3 -10.5695 -24.0004 10.4342
14 2 3 -10.2966 -23.1007 12.5562
24 2 2 -13.0431 -23.4646 10.67
25 2 2 -13.0037 -22.6594 12.2938
26 2 2 -12.7313 -24.4828 12.1847
21 2 1 -7.51317 -23.6706 13.5626
22 2 3 -7.37651 -24.5352 12.6786
23 2 3 -6.53939 -23.8199 14.6294
31 2 2 -6.52169 -23.2947 15.3916
16 2 1 -9.63885 -20.7326 12.245
27 2 2 -10.499 -20.4714 11.7124
20 2 1 -8.04337 -22.3193 13.2193
28 2 2 -8.95464 -18.6888 12.1247
15 2 1 -9.2955 -22.11 12.4829
17 2 1 -8.68418 -19.7721 12.1655
18 2 1 -7.50397 -19.9868 12.9036
19 2 1 -7.0983 -21.2838 12.9872
29 2 2 -6.78631 -19.2161 12.9091
30 2 2 -6.05098 -21.4096 13.3194
1 1 1 18.438 7.89113 13.967
2 1 1 19.5182 8.51789 13.5605
3 1 1 20.608 8.93248 14.5009
6 1 2 18.2865 7.61082 15.012
7 1 2 17.5409 7.82133 13.2794
8 1 2 19.5799 8.91243 12.5
5 1 4 21.9295 8.84287 14.0288
9 1 2 22.0681 9.29815 13.0393
10 1 2 22.634 8.23813 14.3907
68 4 2 5.25483 15.9914 10.4274
4 1 3 20.4314 9.08152 15.7533
54 4 1 5.41948 17.9329 9.6742
53 4 1 4.68861 16.9147 10.36
56 4 3 6.38013 18.5515 10.4566
57 4 1 7.24843 19.6131 10.1061
58 4 1 6.56998 20.8376 9.73452
60 4 1 8.49008 22.2322 10.3699
62 4 1 8.39528 19.7654 11.0239
64 4 3 9.61274 17.9131 10.3524
66 4 2 3.69127 16.768 9.8592
67 4 2 4.44337 17.1828 11.4158
63 4 1 9.34547 18.5828 11.3508
61 4 1 9.14472 21.0843 10.8535
65 4 3 10.0761 18.5307 12.5689
72 4 2 10.0096 21.2754 11.4728
73 4 2 11.0967 18.7245 12.5163
ITEM: TIMESTEP
1620
ITEM: NUMBER OF ATOMS
115
ITEM: BOX BOUNDS pp pp pp
-2.8628399999999999e+01 2.8628399999999999e+01
-2.8628399999999999e+01 2.8628399999999999e+01
-2.8628399999999999e+01 2.8628399999999999e+01
ITEM: ATOMS id mol type x y z
74 5 1 12.6281 -12.6296 -12.1985
75 5 1 13.3085 -11.3295 -12.6058
76 5 3 13.4038 -11.0773 -13.8466
77 5 3 14.5016 -10.9666 -11.82
78 5 1 15.2653 -9.78631 -11.8992
87 5 2 11.6475 -12.7192 -12.7254
88 5 2 12.5067 -12.6074 -11.0665
89 5 2 13.2951 -13.5172 -12.4464
83 5 1 16.5738 -9.80649 -11.239
84 5 1 17.5533 -10.9504 -11.3651
85 5 3 17.1095 -12.0826 -11.2531
86 5 3 18.8734 -10.7893 -10.7582
94 5 2 18.9734 -10.7111 -9.79645
79 5 1 14.567 -8.57475 -11.9514
80 5 1 15.2023 -7.33546 -11.8239
90 5 2 13.6826 -8.45344 -12.5354
91 5 2 14.4949 -6.56693 -11.6027
81 5 1 16.3601 -7.29824 -11.0274
82 5 1 17.2058 -8.43367 -11.128
92 5 2 16.8007 -6.39496 -10.6304
93 5 2 18.1431 -8.33156 -10.5994
97 6 3 16.6189 17.3431 -9.90025
112 6 2 18.0388 22.6226 -9.21749
110 6 2 15.5525 16.0894 -7.79642
95 6 1 15.1056 17.0521 -8.15872
108 6 2 14.2758 16.8298 -8.82264
109 6 2 14.7129 17.5292 -7.22947
96 6 1 16.2058 17.8076 -8.81121
98 6 3 17.2525 18.3086 -8.01949
99 6 1 18.3096 19.3128 -8.33974
100 6 1 17.7721 20.5478 -8.77701
101 6 1 18.6088 21.6685 -8.87343
102 6 1 19.6178 21.7304 -7.9396
103 6 1 20.2815 20.5216 -7.53245
104 6 1 19.4201 19.378 -7.37591
105 6 1 20.1022 18.1127 -7.08317
106 6 3 19.46 17.1597 -6.60115
107 6 3 21.5156 18.1265 -6.8819
111 6 2 16.9145 20.4449 -9.52975
114 6 2 21.152 20.5826 -6.88171
115 6 2 22.0759 17.2914 -6.83515
113 6 2 20.2622 22.5975 -8.04416
32 3 1 15.7866 -6.43303 6.6788
45 3 2 14.7627 -6.5586 6.09202
46 3 2 15.5924 -6.05926 7.75399
33 3 1 16.6377 -5.45957 5.89841
34 3 3 16.7488 -5.74928 4.61812
35 3 3 17.8751 -5.14155 6.54569
36 3 1 18.6513 -4.04708 6.22042
41 3 1 20.0329 -4.13303 6.72942
42 3 1 20.7279 -5.52924 6.70572
43 3 3 20.3935 -6.50928 5.94235
44 3 3 21.8207 -5.68712 7.50165
47 3 2 16.3208 -7.45737 6.75468
52 3 2 21.7888 -5.92366 8.52794
37 3 1 18.0308 -2.73631 6.46364
38 3 1 18.798 -1.5341 6.50801
39 3 1 20.149 -1.75818 6.86793
40 3 1 20.8397 -2.9522 6.60978
48 3 2 17.1127 -2.68431 5.94775
49 3 2 18.3687 -0.609118 6.84397
50 3 2 20.7485 -0.834088 6.87335
51 3 2 21.8873 -2.92378 6.88404
55 4 3 5.79564 17.7425 8.45986
59 4 1 7.33912 21.9516 9.46317
69 4 2 5.82455 20.64 9.09757
71 4 2 8.97972 23.0674 10.217
70 4 2 6.78913 22.8258 9.00634
11 2 1 -12.517 -23.5462 11.6723
12 2 1 -11.0859 -23.3426 11.4014
13 2 3 -10.6257 -23.9225 10.3475
14 2 3 -10.2171 -23.04 12.4958
24 2 2 -13.1366 -23.7204 10.6832
25 2 2 -12.8989 -22.5762 12.1162
26 2 2 -12.7349 -24.3673 12.3782
21 2 1 -7.51494 -23.7215 13.4855
22 2 3 -7.40469 -24.5962 12.6015
23 2 3 -6.5945 -23.7489 14.5285
31 2 2 -6.91191 -23.1601 15.3923
16 2 1 -9.62577 -20.7127 12.2842
27 2 2 -10.4628 -20.4697 11.6882
20 2 1 -8.04696 -22.3571 13.2696
28 2 2 -8.80775 -18.7609 11.9531
15 2 1 -9.20104 -22.0942 12.4671
17 2 1 -8.60623 -19.8338 12.1099
18 2 1 -7.48354 -20.0414 12.8884
19 2 1 -7.02306 -21.3738 12.9574
29 2 2 -6.69441 -19.2355 12.6525
30 2 2 -6.04699 -21.4488 13.4636
1 1 1 18.5154 7.84716 14.0706
2 1 1 19.4769 8.67652 13.7004
3 1 1 20.6222 8.96795 14.5088
6 1 2 18.4678 7.42955 15.0494
7 1 2 17.6557 7.67438 13.5132
8 1 2 19.3836 9.16239 12.7478
5 1 4 21.9039 8.91555 13.8687
9 1 2 21.9941 9.34299 12.9509
10 1 2 22.4974 8.14967 14.1357
68 4 2 5.32388 16.0444 10.5442
4 1 3 20.4483 9.07043 15.7908
54 4 1 5.42557 17.9775 9.65177
53 4 1 4.66573 16.9203 10.4464
56 4 3 6.46546 18.5655 10.4147
57 4 1 7.247 19.7033 10.2194
58 4 1 6.58794 20.8489 9.77974
60 4 1 8.40346 22.1611 10.3703
62 4 1 8.40228 19.8818 11.0305
64 4 3 9.64466 17.8587 10.4582
66 4 2 3.74472 16.6076 9.9069
67 4 2 4.41066 17.2341 11.5153
63 4 1 9.26823 18.6271 11.3543
61 4 1 9.14859 21.0859 10.8704
65 4 3 10.0616 18.5273 12.5201
72 4 2 9.81873 21.2637 11.6728
73 4 2 11.0543 18.8393 12.4653
ITEM: TIMESTEP
1640
ITEM: NUMBER OF ATOMS
115
ITEM: BOX BOUNDS pp pp pp
-2.8628399999999999e+01 2.8628399999999999e+01
-2.8628399999999999e+01 2.8628399999999999e+01
-2.8628399999999999e+01 2.8628399999999999e+01
ITEM: ATOMS id mol type x y z
74 5 1 12.6454 -12.5469 -12.169
75 5 1 13.3533 -11.2639 -12.5742
76 5 3 13.3387 -11.1441 -13.7965
77 5 3 14.5098 -10.974 -11.8667
78 5 1 15.3021 -9.80601 -11.8449
87 5 2 11.5814 -12.5295 -12.57
88 5 2 12.5616 -12.4707 -11.0276
89 5 2 13.2281 -13.4718 -12.3829
83 5 1 16.6143 -9.76979 -11.218
84 5 1 17.6167 -10.9331 -11.3998
85 5 3 17.1592 -12.0815 -11.3755
86 5 3 18.8631 -10.7618 -10.7983
94 5 2 18.9474 -10.8495 -9.77731
79 5 1 14.5663 -8.55203 -12.0868
80 5 1 15.1762 -7.33322 -11.7424
90 5 2 13.6428 -8.45666 -12.6702
91 5 2 14.6792 -6.43196 -11.8066
81 5 1 16.3796 -7.37502 -10.9672
82 5 1 17.2361 -8.49746 -11.1178
92 5 2 16.9418 -6.49324 -10.8915
93 5 2 18.1434 -8.48316 -10.5795
97 6 3 16.5978 17.4128 -10.0014
112 6 2 18.2661 22.5039 -9.23751
110 6 2 15.5473 16.1011 -7.85551
95 6 1 15.1452 17.0739 -8.25065
108 6 2 14.4167 16.7664 -9.00111
109 6 2 14.6156 17.5652 -7.43054
96 6 1 16.269 17.8432 -8.82308
98 6 3 17.2588 18.3472 -7.95293
99 6 1 18.2312 19.3177 -8.25288
100 6 1 17.7308 20.5492 -8.70621
101 6 1 18.6821 21.597 -8.85755
102 6 1 19.6458 21.7529 -7.88919
103 6 1 20.2111 20.5617 -7.52469
104 6 1 19.3588 19.4118 -7.37903
105 6 1 20.1106 18.1776 -7.02043
106 6 3 19.4414 17.1758 -6.55181
107 6 3 21.5248 18.1123 -6.81548
111 6 2 16.8709 20.5414 -9.3601
114 6 2 21.0234 20.6307 -6.80192
115 6 2 22.1055 17.2837 -7.04204
113 6 2 20.4122 22.5084 -8.121
32 3 1 15.8316 -6.3835 6.76991
45 3 2 14.8581 -6.63086 6.21574
46 3 2 15.5747 -5.7903 7.54259
33 3 1 16.6687 -5.49369 5.96008
34 3 3 16.7208 -5.61596 4.70669
35 3 3 17.915 -5.13191 6.48579
36 3 1 18.6464 -4.00797 6.2773
41 3 1 19.9796 -4.19082 6.74969
42 3 1 20.7268 -5.50842 6.77381
43 3 3 20.4734 -6.38231 5.92462
44 3 3 21.8581 -5.73813 7.60758
47 3 2 16.3987 -7.29743 7.05853
52 3 2 21.8353 -5.77194 8.58417
37 3 1 17.9877 -2.73168 6.43029
38 3 1 18.8466 -1.68131 6.36808
39 3 1 20.1839 -1.81504 6.87146
40 3 1 20.8066 -3.00959 6.58132
48 3 2 16.9218 -2.66141 6.09481
49 3 2 18.4182 -0.766309 6.58211
50 3 2 20.7597 -0.919297 6.91048
51 3 2 21.7982 -3.02547 7.01492
55 4 3 5.84819 17.759 8.53766
59 4 1 7.44092 21.9661 9.55287
69 4 2 5.75502 20.6912 9.02505
71 4 2 8.9438 23.0915 10.3306
70 4 2 6.98253 22.8507 9.31973
11 2 1 -12.499 -23.5832 11.8538
12 2 1 -11.1374 -23.2148 11.3666
13 2 3 -10.6591 -23.7947 10.3465
14 2 3 -10.2307 -23.0613 12.4423
24 2 2 -13.1406 -23.8755 11.0217
25 2 2 -12.949 -22.7397 12.3978
26 2 2 -12.4458 -24.4544 12.4397
21 2 1 -7.60299 -23.7362 13.4748
22 2 3 -7.37218 -24.5466 12.5092
23 2 3 -6.64551 -23.7865 14.4589
31 2 2 -6.84613 -23.4664 15.4159
16 2 1 -9.5943 -20.7728 12.2484
27 2 2 -10.4815 -20.5119 11.5824
20 2 1 -8.01464 -22.3358 13.1215
28 2 2 -8.70732 -18.8174 11.8605
15 2 1 -9.21735 -22.1054 12.3687
17 2 1 -8.51794 -19.8451 12.1244
18 2 1 -7.2977 -20.1252 12.8526
19 2 1 -6.92102 -21.4619 12.9749
29 2 2 -6.43573 -19.4608 12.7003
30 2 2 -6.08901 -21.6239 13.5924
1 1 1 18.5054 7.80287 14.2192
2 1 1 19.3649 8.72182 13.8497
3 1 1 20.6199 9.09577 14.549
6 1 2 18.6636 7.24475 15.0602
7 1 2 17.6396 7.46861 13.5605
8 1 2 19.2564 9.19228 12.9413
5 1 4 21.858 8.983 13.8729
9 1 2 21.9463 9.48403 12.9147
10 1 2 22.5027 8.13127 14.082
68 4 2 5.28389 15.9381 10.5339
4 1 3 20.6547 9.0971 15.8437
54 4 1 5.48106 17.9814 9.70398
53 4 1 4.67868 16.9398 10.4053
56 4 3 6.46313 18.5875 10.518
57 4 1 7.32016 19.6479 10.2427
58 4 1 6.62605 20.8673 9.76598
60 4 1 8.4111 22.1702 10.4431
62 4 1 8.45685 19.8198 11.0773
64 4 3 9.62605 17.8663 10.5187
66 4 2 3.74449 16.6883 9.85146
67 4 2 4.46599 17.2216 11.4126
63 4 1 9.23285 18.5888 11.4233
61 4 1 9.13305 21.1029 10.9622
65 4 3 10.0017 18.5127 12.5236
72 4 2 9.84892 21.2867 11.7404
73 4 2 10.807 19.0388 12.5318
ITEM: TIMESTEP
1660
ITEM: NUMBER OF ATOMS
115
ITEM: BOX BOUNDS pp pp pp
-2.8628399999999999e+01 2.8628399999999999e+01
-2.8628399999999999e+01 2.8628399999999999e+01
-2.8628399999999999e+01 2.8628399999999999e+01
ITEM: ATOMS id mol type x y z
74 5 1 12.6114 -12.5376 -12.063
75 5 1 13.4269 -11.3484 -12.52
76 5 3 13.3833 -11.0911 -13.7773
77 5 3 14.5815 -11.0582 -11.8109
78 5 1 15.3413 -9.83793 -11.9607
87 5 2 11.6151 -12.3538 -12.4245
88 5 2 12.5493 -12.6628 -10.993
89 5 2 13.129 -13.3981 -12.4381
83 5 1 16.5751 -9.7182 -11.2165
84 5 1 17.5894 -10.8527 -11.3928
85 5 3 17.2306 -12.0335 -11.4732
86 5 3 18.8531 -10.8441 -10.8158
94 5 2 19.047 -10.9032 -9.79937
79 5 1 14.618 -8.68185 -11.9853
80 5 1 15.2003 -7.39448 -11.7593
90 5 2 13.6618 -8.66943 -12.5714
91 5 2 14.4509 -6.60438 -11.5151
81 5 1 16.3859 -7.27961 -10.9929
82 5 1 17.215 -8.47307 -11.0626
92 5 2 16.9658 -6.34835 -10.9663
93 5 2 18.1469 -8.47735 -10.4424
97 6 3 16.7561 17.5669 -10.0093
112 6 2 18.2843 22.673 -9.18664
110 6 2 15.4936 16.0887 -7.80058
95 6 1 15.1774 17.0982 -8.29894
108 6 2 14.2904 16.8767 -8.94293
109 6 2 14.8626 17.7231 -7.39532
96 6 1 16.2864 17.8953 -8.90177
98 6 3 17.2342 18.372 -7.9947
99 6 1 18.2171 19.3573 -8.23434
100 6 1 17.7327 20.6629 -8.68703
101 6 1 18.6734 21.7042 -8.92476
102 6 1 19.743 21.7128 -7.99115
103 6 1 20.2135 20.4861 -7.41068
104 6 1 19.3023 19.4279 -7.2462
105 6 1 20.1122 18.2087 -6.86908
106 6 3 19.4071 17.2471 -6.52049
107 6 3 21.4976 18.1243 -6.70943
111 6 2 17.0243 20.6441 -9.42609
114 6 2 21.0358 20.577 -6.68373
115 6 2 22.1257 17.5052 -7.24878
113 6 2 20.4813 22.4828 -8.07788
32 3 1 15.8509 -6.3824 6.81501
45 3 2 14.9216 -6.71089 6.42872
46 3 2 15.5593 -5.99592 7.86139
33 3 1 16.6594 -5.46675 5.9735
34 3 3 16.6594 -5.59088 4.69042
35 3 3 17.861 -5.16695 6.51202
36 3 1 18.6735 -4.06197 6.2291
41 3 1 20.0066 -4.16571 6.74466
42 3 1 20.8042 -5.4329 6.76582
43 3 3 20.5748 -6.41445 5.96548
44 3 3 21.8069 -5.73442 7.69068
47 3 2 16.5258 -7.25 6.88235
52 3 2 21.6559 -5.65595 8.69319
37 3 1 18.0324 -2.77696 6.48101
38 3 1 18.8502 -1.66948 6.29984
39 3 1 20.0893 -1.75519 6.85902
40 3 1 20.7332 -2.96723 6.60167
48 3 2 17.1214 -2.7123 5.89556
49 3 2 18.3524 -0.69223 6.19786
50 3 2 20.6684 -0.811186 6.7112
51 3 2 21.7875 -3.01775 6.77198
55 4 3 5.8986 17.7294 8.51802
59 4 1 7.44744 22.0437 9.60301
69 4 2 5.93405 20.5908 9.06962
71 4 2 8.94428 23.0827 10.5468
70 4 2 6.95494 22.869 9.14683
11 2 1 -12.5274 -23.535 11.8712
12 2 1 -11.1529 -23.1839 11.3392
13 2 3 -10.7317 -23.7854 10.356
14 2 3 -10.2647 -22.9305 12.353
24 2 2 -13.2879 -23.4566 11.129
25 2 2 -12.8697 -22.8162 12.6644
26 2 2 -12.5197 -24.585 12.242
21 2 1 -7.59027 -23.8234 13.452
22 2 3 -7.40612 -24.5323 12.408
23 2 3 -6.6544 -23.8945 14.4493
31 2 2 -6.73088 -23.4237 15.3548
16 2 1 -9.45328 -20.7425 12.2193
27 2 2 -10.3659 -20.3618 11.7626
20 2 1 -8.02496 -22.3802 13.1557
28 2 2 -8.66155 -18.8257 12.0096
15 2 1 -9.13958 -22.1352 12.2821
17 2 1 -8.41934 -19.8737 12.1308
18 2 1 -7.24832 -20.1269 12.8095
19 2 1 -6.98736 -21.4815 12.895
29 2 2 -6.45502 -19.4674 12.6785
30 2 2 -5.97866 -21.6881 13.2754
1 1 1 18.4917 7.6935 14.3789
2 1 1 19.2647 8.69 14.0319
3 1 1 20.561 9.16069 14.6342
6 1 2 18.801 7.05161 15.2256
7 1 2 17.5983 7.46498 13.8103
8 1 2 18.9624 9.20322 13.1826
5 1 4 21.8169 9.08262 13.9172
9 1 2 21.9375 9.50966 13.0313
10 1 2 22.5168 8.39851 14.1485
68 4 2 5.34851 16.0738 10.6355
4 1 3 20.7038 9.19572 15.9518
54 4 1 5.50296 17.967 9.71784
53 4 1 4.69329 16.8864 10.3539
56 4 3 6.45874 18.5875 10.5324
57 4 1 7.36658 19.6401 10.2012
58 4 1 6.71634 20.8394 9.77025
60 4 1 8.42411 22.1904 10.6066
62 4 1 8.39893 19.829 11.1479
64 4 3 9.55917 17.8349 10.4204
66 4 2 3.8566 16.4861 9.70564
67 4 2 4.28803 17.2352 11.3584
63 4 1 9.22414 18.5702 11.4269
61 4 1 9.16235 21.0708 11.0087
65 4 3 10.019 18.5297 12.6411
72 4 2 9.90549 21.1954 11.7769
73 4 2 10.8395 19.1225 12.7676
ITEM: TIMESTEP
1680
ITEM: NUMBER OF ATOMS
115
ITEM: BOX BOUNDS pp pp pp
-2.8628399999999999e+01 2.8628399999999999e+01
-2.8628399999999999e+01 2.8628399999999999e+01
-2.8628399999999999e+01 2.8628399999999999e+01
ITEM: ATOMS id mol type x y z
74 5 1 12.6088 -12.5253 -11.942
75 5 1 13.4454 -11.3419 -12.4565
76 5 3 13.4034 -11.0095 -13.6699
77 5 3 14.6948 -11.0309 -11.8673
78 5 1 15.4009 -9.82203 -11.873
87 5 2 11.5679 -12.231 -12.2787
88 5 2 12.5751 -12.5141 -10.872
89 5 2 12.8967 -13.619 -12.2291
83 5 1 16.6899 -9.75647 -11.1334
84 5 1 17.6188 -10.9264 -11.3541
85 5 3 17.2222 -12.1312 -11.5009
86 5 3 18.8855 -10.8475 -10.9023
94 5 2 19.1016 -10.9648 -9.96808
79 5 1 14.583 -8.64964 -11.8068
80 5 1 15.1973 -7.44188 -11.8307
90 5 2 13.699 -8.70033 -12.3624
91 5 2 14.5924 -6.58597 -11.9267
81 5 1 16.3526 -7.31226 -11.0395
82 5 1 17.2426 -8.4374 -11.0138
92 5 2 16.7816 -6.34717 -10.9841
93 5 2 18.143 -8.2536 -10.4454
97 6 3 16.8238 17.5335 -9.982
112 6 2 18.293 22.5909 -9.19904
110 6 2 15.6247 16.0844 -8.07696
95 6 1 15.2493 17.115 -8.31309
108 6 2 14.4339 16.9599 -9.0123
109 6 2 14.8187 17.5331 -7.39695
96 6 1 16.3941 17.951 -8.88932
98 6 3 17.3311 18.4803 -8.00577
99 6 1 18.2975 19.4441 -8.24513
100 6 1 17.8118 20.6917 -8.757
101 6 1 18.7254 21.6834 -8.95536
102 6 1 19.7706 21.7925 -8.05593
103 6 1 20.2457 20.6162 -7.42431
104 6 1 19.4073 19.5193 -7.27863
105 6 1 20.0431 18.2152 -6.70472
106 6 3 19.4042 17.1522 -6.4714
107 6 3 21.4339 18.1965 -6.55024
111 6 2 16.9365 20.7815 -9.39593
114 6 2 20.8929 20.7322 -6.61718
115 6 2 21.9815 17.5719 -7.16982
113 6 2 20.5299 22.5196 -8.23697
32 3 1 15.7749 -6.40442 6.8554
45 3 2 14.7682 -6.44547 6.42972
46 3 2 15.6131 -6.13141 7.87683
33 3 1 16.6079 -5.48612 6.05987
34 3 3 16.4552 -5.70003 4.85733
35 3 3 17.8775 -5.20653 6.59587
36 3 1 18.7015 -4.0681 6.33597
41 3 1 20.0387 -4.09859 6.8005
42 3 1 20.8134 -5.39527 6.77405
43 3 3 20.576 -6.40374 5.97298
44 3 3 21.8201 -5.63482 7.75856
47 3 2 16.1903 -7.42909 6.79509
52 3 2 21.5033 -5.59402 8.72781
37 3 1 18.0472 -2.81348 6.41778
38 3 1 18.8139 -1.62784 6.28598
39 3 1 20.1721 -1.67423 6.75069
40 3 1 20.8376 -2.91835 6.73966
48 3 2 16.9943 -2.76561 6.14548
49 3 2 18.179 -0.721349 6.41544
50 3 2 20.7359 -0.785054 6.54833
51 3 2 21.8577 -2.95758 7.03633
55 4 3 5.93051 17.6837 8.49881
59 4 1 7.49912 22.0492 9.69447
69 4 2 6.05423 20.7331 8.88523
71 4 2 9.07534 23.0511 10.5709
70 4 2 6.94296 22.9153 9.33328
11 2 1 -12.4976 -23.4843 11.8283
12 2 1 -11.1283 -23.1512 11.3265
13 2 3 -10.812 -23.7468 10.3123
14 2 3 -10.2759 -22.878 12.3951
24 2 2 -13.2932 -23.2325 11.0099
25 2 2 -12.7699 -22.773 12.6251
26 2 2 -12.5971 -24.5585 12.1789
21 2 1 -7.54355 -23.8196 13.4114
22 2 3 -7.38713 -24.6701 12.4879
23 2 3 -6.71613 -24.007 14.5581
31 2 2 -6.86717 -23.6401 15.4848
16 2 1 -9.47014 -20.6492 12.155
27 2 2 -10.2579 -20.49 11.5255
20 2 1 -7.99282 -22.3891 13.1081
28 2 2 -8.6192 -18.6855 12.1815
15 2 1 -9.16943 -22.0753 12.3461
17 2 1 -8.35048 -19.7776 12.0105
18 2 1 -7.28622 -20.1285 12.858
19 2 1 -6.92344 -21.508 12.9709
29 2 2 -6.43811 -19.4648 12.9451
30 2 2 -6.04516 -21.6581 13.566
1 1 1 18.664 7.64767 14.5049
2 1 1 19.2855 8.7554 14.1471
3 1 1 20.5354 9.12454 14.6874
6 1 2 19.1743 7.06458 15.2904
7 1 2 17.7495 7.33732 14.0243
8 1 2 18.8542 9.34746 13.3366
5 1 4 21.7122 9.17077 13.9024
9 1 2 21.5533 9.4903 12.8838
10 1 2 22.3484 8.30017 13.9654
68 4 2 5.27595 15.9957 10.4279
4 1 3 20.7217 9.20775 15.9785
54 4 1 5.57442 18.0143 9.67837
53 4 1 4.73651 16.9472 10.2774
56 4 3 6.55183 18.605 10.5122
57 4 1 7.34316 19.6955 10.2581
58 4 1 6.76998 20.8928 9.68512
60 4 1 8.46536 22.196 10.6822
62 4 1 8.44616 19.8197 11.2031
64 4 3 9.53864 17.8406 10.5303
66 4 2 4.03985 16.6523 9.53896
67 4 2 4.25592 17.1825 11.2086
63 4 1 9.2284 18.6213 11.4636
61 4 1 9.1575 21.0602 11.0801
65 4 3 9.94513 18.543 12.5972
72 4 2 9.81021 21.2027 11.9052
73 4 2 10.8422 19.0461 12.6788
ITEM: TIMESTEP
1700
ITEM: NUMBER OF ATOMS
115
ITEM: BOX BOUNDS pp pp pp
-2.8628399999999999e+01 2.8628399999999999e+01
-2.8628399999999999e+01 2.8628399999999999e+01
-2.8628399999999999e+01 2.8628399999999999e+01
ITEM: ATOMS id mol type x y z
74 5 1 12.7837 -12.5593 -12.0062
75 5 1 13.4438 -11.298 -12.4263
76 5 3 13.4208 -11.0588 -13.6671
77 5 3 14.6987 -11.0421 -11.7955
78 5 1 15.3588 -9.79215 -11.8438
87 5 2 11.6824 -12.5742 -12.3283
88 5 2 12.8449 -12.7939 -10.9006
89 5 2 13.2866 -13.4136 -12.445
83 5 1 16.6442 -9.79718 -11.1907
84 5 1 17.6149 -10.9645 -11.4101
85 5 3 17.2309 -12.1637 -11.446
86 5 3 18.9901 -10.7889 -10.9332
94 5 2 19.1682 -11.0177 -9.92602
79 5 1 14.512 -8.61333 -11.7412
80 5 1 15.2127 -7.42038 -11.8155
90 5 2 13.5366 -8.70626 -12.2258
91 5 2 14.6662 -6.4738 -11.7808
81 5 1 16.3523 -7.3865 -10.9683
82 5 1 17.1878 -8.52351 -11.0423
92 5 2 16.893 -6.49671 -10.9072
93 5 2 17.9643 -8.44981 -10.3226
97 6 3 16.8918 17.536 -9.96914
112 6 2 18.451 22.6158 -9.60639
110 6 2 15.9753 16.2202 -8.0663
95 6 1 15.4394 17.0826 -8.32826
108 6 2 14.6506 16.8617 -9.06921
109 6 2 14.9495 17.5619 -7.41502
96 6 1 16.4293 18.0196 -8.92414
98 6 3 17.3146 18.5466 -7.98249
99 6 1 18.3147 19.5343 -8.25741
100 6 1 17.797 20.7405 -8.71865
101 6 1 18.7641 21.6949 -8.98002
102 6 1 19.779 21.8613 -8.03948
103 6 1 20.2293 20.708 -7.39716
104 6 1 19.4068 19.4797 -7.29623
105 6 1 20.0096 18.1943 -6.73594
106 6 3 19.3865 17.148 -6.40479
107 6 3 21.3735 18.2257 -6.52744
111 6 2 17.1009 20.5915 -9.50942
114 6 2 20.964 20.8361 -6.62938
115 6 2 21.9851 17.6038 -7.0008
113 6 2 20.5278 22.6792 -8.14685
32 3 1 15.7041 -6.41497 6.99082
45 3 2 14.6564 -6.30248 6.75163
46 3 2 15.7252 -6.06024 8.07593
33 3 1 16.5413 -5.56727 6.10974
34 3 3 16.3771 -5.77344 4.88787
35 3 3 17.863 -5.26764 6.58716
36 3 1 18.6737 -4.08022 6.31577
41 3 1 20.0387 -4.13264 6.87123
42 3 1 20.8716 -5.42662 6.79989
43 3 3 20.5226 -6.29958 5.9952
44 3 3 21.8289 -5.65979 7.75209
47 3 2 16.0263 -7.49845 7.02147
52 3 2 21.4716 -5.57241 8.63465
37 3 1 18.0454 -2.77661 6.37204
38 3 1 18.8297 -1.58093 6.30997
39 3 1 20.1635 -1.65641 6.69608
40 3 1 20.7846 -2.88361 6.77815
48 3 2 17.1334 -2.70736 5.75979
49 3 2 18.3032 -0.720231 6.43393
50 3 2 20.7181 -0.757811 6.60258
51 3 2 21.701 -2.90835 7.45492
55 4 3 5.88234 17.8073 8.44804
59 4 1 7.5275 22.0758 9.70807
69 4 2 6.18003 20.6915 8.88577
71 4 2 9.09743 23.1408 10.5496
70 4 2 7.13977 22.9256 9.25191
11 2 1 -12.6186 -23.3605 11.7245
12 2 1 -11.2186 -23.0761 11.2643
13 2 3 -10.7889 -23.6788 10.2455
14 2 3 -10.2606 -22.8835 12.3363
24 2 2 -13.2276 -23.2888 10.8142
25 2 2 -13.0655 -22.7272 12.5191
26 2 2 -12.6342 -24.4038 12.0707
21 2 1 -7.61233 -23.8401 13.4537
22 2 3 -7.41432 -24.7164 12.593
23 2 3 -6.78493 -24.0761 14.5137
31 2 2 -6.95293 -23.7893 15.4562
16 2 1 -9.36406 -20.6897 12.0585
27 2 2 -10.2871 -20.4523 11.4433
20 2 1 -7.96906 -22.3643 13.2029
28 2 2 -8.33822 -18.8072 11.7049
15 2 1 -9.11029 -22.0204 12.3058
17 2 1 -8.30897 -19.8844 12.0525
18 2 1 -7.23378 -20.1428 12.8846
19 2 1 -6.82748 -21.5025 13.0751
29 2 2 -6.40136 -19.4278 12.9058
30 2 2 -5.90852 -21.7068 13.6789
1 1 1 18.7546 7.50731 14.5465
2 1 1 19.3072 8.70534 14.2388
3 1 1 20.6155 9.16932 14.7692
6 1 2 19.2089 6.90612 15.2902
7 1 2 17.7355 7.22538 14.1567
8 1 2 18.8099 9.24337 13.4315
5 1 4 21.6967 9.17313 13.8703
9 1 2 21.51 9.66545 12.9333
10 1 2 22.5902 8.61385 13.9356
68 4 2 5.3593 15.9619 10.3374
4 1 3 20.775 9.24287 16.0479
54 4 1 5.62793 17.9421 9.67843
53 4 1 4.79157 16.9128 10.2848
56 4 3 6.61007 18.5653 10.4956
57 4 1 7.31531 19.7499 10.3082
58 4 1 6.73724 20.905 9.7547
60 4 1 8.50604 22.2452 10.6888
62 4 1 8.41671 19.8886 11.2249
64 4 3 9.54671 17.8651 10.5236
66 4 2 3.93615 16.6813 9.56426
67 4 2 4.45287 17.2279 11.3093
63 4 1 9.16615 18.6338 11.4674
61 4 1 9.1756 21.083 11.1152
65 4 3 9.95572 18.5851 12.6354
72 4 2 9.9809 21.1853 11.8255
73 4 2 10.9358 18.7645 12.652
ITEM: TIMESTEP
1720
ITEM: NUMBER OF ATOMS
115
ITEM: BOX BOUNDS pp pp pp
-2.8628399999999999e+01 2.8628399999999999e+01
-2.8628399999999999e+01 2.8628399999999999e+01
-2.8628399999999999e+01 2.8628399999999999e+01
ITEM: ATOMS id mol type x y z
74 5 1 12.8705 -12.6871 -12.0622
75 5 1 13.4491 -11.382 -12.4742
76 5 3 13.5547 -11.1746 -13.7193
77 5 3 14.5637 -11.0303 -11.7573
78 5 1 15.2712 -9.82834 -11.8205
87 5 2 12.001 -13.0177 -12.6671
88 5 2 12.7196 -12.7551 -10.9488
89 5 2 13.6998 -13.4109 -12.2619
83 5 1 16.5314 -9.86441 -11.1726
84 5 1 17.585 -10.9985 -11.445
85 5 3 17.1165 -12.1712 -11.4945
86 5 3 18.914 -10.8541 -11.0221
94 5 2 19.12 -10.8142 -10.0286
79 5 1 14.5231 -8.62759 -11.6531
80 5 1 15.2432 -7.43582 -11.7639
90 5 2 13.5309 -8.61922 -12.1485
91 5 2 14.7143 -6.49583 -11.6092
81 5 1 16.3849 -7.43363 -10.9732
82 5 1 17.2309 -8.58797 -11.0627
92 5 2 16.8631 -6.43493 -10.8833
93 5 2 18.2261 -8.45589 -10.566
97 6 3 16.973 17.5875 -10.0261
112 6 2 18.4425 22.5898 -9.6033
110 6 2 15.9213 16.1327 -7.83598
95 6 1 15.4377 17.0451 -8.26187
108 6 2 14.6833 16.8171 -8.97241
109 6 2 14.8865 17.6047 -7.43734
96 6 1 16.4336 17.9733 -8.95162
98 6 3 17.2718 18.6195 -8.00704
99 6 1 18.2899 19.5315 -8.21639
100 6 1 17.8241 20.7584 -8.76392
101 6 1 18.8425 21.6489 -9.13165
102 6 1 19.6508 21.8447 -8.07476
103 6 1 20.1964 20.6577 -7.41581
104 6 1 19.3465 19.5013 -7.2478
105 6 1 20.0111 18.1867 -6.88005
106 6 3 19.3303 17.2019 -6.49172
107 6 3 21.3567 18.1475 -6.42544
111 6 2 16.9406 20.7561 -9.36128
114 6 2 20.9655 20.8365 -6.62401
115 6 2 21.9905 17.4311 -6.71399
113 6 2 20.3828 22.5582 -8.2372
32 3 1 15.6986 -6.42631 7.18847
45 3 2 14.5974 -6.35669 6.93438
46 3 2 15.8167 -6.06715 8.21414
33 3 1 16.5218 -5.57055 6.13557
34 3 3 16.3569 -5.73153 4.91089
35 3 3 17.8032 -5.20845 6.63156
36 3 1 18.659 -4.09513 6.35904
41 3 1 19.99 -4.11137 6.91389
42 3 1 20.7736 -5.39857 6.76583
43 3 3 20.4551 -6.33846 5.99986
44 3 3 21.8626 -5.72258 7.683
47 3 2 16.1141 -7.44789 7.18521
52 3 2 21.7311 -5.77256 8.72085
37 3 1 18.0816 -2.79675 6.43062
38 3 1 18.8187 -1.5981 6.31462
39 3 1 20.114 -1.62774 6.83756
40 3 1 20.752 -2.905 6.80896
48 3 2 17.0085 -2.69554 6.13933
49 3 2 18.2393 -0.681256 6.41632
50 3 2 20.6944 -0.69859 6.59947
51 3 2 21.7792 -2.99981 7.10933
55 4 3 5.86578 17.8143 8.36854
59 4 1 7.52815 22.0319 9.70036
69 4 2 5.94912 20.818 9.10268
71 4 2 8.97094 23.2132 10.6598
70 4 2 7.01881 22.9451 9.34255
11 2 1 -12.5971 -23.3857 11.641
12 2 1 -11.2654 -22.9823 11.2672
13 2 3 -10.8174 -23.5771 10.2375
14 2 3 -10.293 -22.8565 12.358
24 2 2 -13.3444 -23.3094 10.8473
25 2 2 -12.9249 -22.6974 12.4048
26 2 2 -12.6185 -24.3445 12.1137
21 2 1 -7.67423 -23.8184 13.5085
22 2 3 -7.52006 -24.5752 12.5666
23 2 3 -6.83802 -24.1068 14.5934
31 2 2 -6.9174 -23.6591 15.5525
16 2 1 -9.29506 -20.7471 12.1618
27 2 2 -10.0733 -20.573 11.4193
20 2 1 -7.92664 -22.3807 13.2875
28 2 2 -8.56806 -18.8235 12.1517
15 2 1 -9.02116 -22.1304 12.3259
17 2 1 -8.27033 -19.8431 12.0533
18 2 1 -7.12538 -20.1509 12.8381
19 2 1 -6.8284 -21.5223 13.0217
29 2 2 -6.23193 -19.5114 12.8278
30 2 2 -5.98614 -21.7307 13.679
1 1 1 18.7386 7.42053 14.5499
2 1 1 19.2194 8.6843 14.3815
3 1 1 20.5608 9.20415 14.8201
6 1 2 19.1839 6.67234 15.2001
7 1 2 17.8885 7.04734 13.9853
8 1 2 18.7083 9.11391 13.4981
5 1 4 21.6558 9.26942 13.8974
9 1 2 21.5572 9.66201 12.9333
10 1 2 22.3419 8.60117 14.0869
68 4 2 5.46756 16.0222 10.5105
4 1 3 20.8219 9.20157 16.0785
54 4 1 5.63375 17.9768 9.60432
53 4 1 4.80072 16.9198 10.3482
56 4 3 6.62627 18.4602 10.4515
57 4 1 7.29389 19.7151 10.2685
58 4 1 6.70214 20.9012 9.86041
60 4 1 8.44902 22.2972 10.7392
62 4 1 8.45803 19.8708 11.1399
64 4 3 9.50509 17.8833 10.4898
66 4 2 4.03449 16.6355 9.63671
67 4 2 4.34124 17.3808 11.3038
63 4 1 9.23634 18.6141 11.4998
61 4 1 9.12812 21.1455 11.076
65 4 3 10.0313 18.515 12.6514
72 4 2 9.92684 21.2313 11.8322
73 4 2 11.0479 18.6204 12.5482
ITEM: TIMESTEP
1740
ITEM: NUMBER OF ATOMS
115
ITEM: BOX BOUNDS pp pp pp
-2.8628399999999999e+01 2.8628399999999999e+01
-2.8628399999999999e+01 2.8628399999999999e+01
-2.8628399999999999e+01 2.8628399999999999e+01
ITEM: ATOMS id mol type x y z
74 5 1 12.8845 -12.7849 -12.1764
75 5 1 13.4893 -11.4343 -12.5518
76 5 3 13.6202 -11.2527 -13.7686
77 5 3 14.4837 -10.9631 -11.6866
78 5 1 15.3161 -9.79982 -11.7398
87 5 2 11.9968 -12.9705 -12.7679
88 5 2 12.6775 -12.7306 -11.0826
89 5 2 13.5777 -13.6292 -12.4267
83 5 1 16.5816 -9.85232 -11.0585
84 5 1 17.4659 -11.0216 -11.4084
85 5 3 17.0529 -12.1756 -11.5051
86 5 3 18.7933 -10.8564 -11.0958
94 5 2 19.1946 -10.8799 -10.1569
79 5 1 14.5076 -8.60365 -11.6626
80 5 1 15.2075 -7.42687 -11.7145
90 5 2 13.5419 -8.59604 -12.1426
91 5 2 14.8073 -6.42343 -11.7525
81 5 1 16.4161 -7.42405 -11.0344
82 5 1 17.2276 -8.5954 -11.0169
92 5 2 16.9967 -6.43727 -11.005
93 5 2 18.0597 -8.55158 -10.3585
97 6 3 16.9911 17.6424 -9.99487
112 6 2 18.5458 22.4339 -9.77892
110 6 2 15.8436 16.1237 -7.90101
95 6 1 15.3726 17.0715 -8.37397
108 6 2 14.663 16.7773 -9.14668
109 6 2 14.8084 17.614 -7.60687
96 6 1 16.4566 17.9835 -8.91239
98 6 3 17.2141 18.662 -7.94963
99 6 1 18.1921 19.5663 -8.16106
100 6 1 17.9013 20.728 -8.96741
101 6 1 18.8886 21.6831 -9.15854
102 6 1 19.7197 21.9155 -8.05076
103 6 1 20.177 20.7315 -7.3937
104 6 1 19.3316 19.5872 -7.24491
105 6 1 19.9884 18.2272 -6.87508
106 6 3 19.3117 17.2119 -6.51929
107 6 3 21.3157 18.2024 -6.45121
111 6 2 17.3312 20.5116 -9.8566
114 6 2 20.8762 20.8806 -6.60287
115 6 2 21.7845 17.276 -6.45134
113 6 2 20.3773 22.7077 -8.1095
32 3 1 15.8088 -6.4448 7.19653
45 3 2 14.7362 -6.4806 6.91289
46 3 2 15.8256 -6.1099 8.22073
33 3 1 16.5697 -5.47094 6.26238
34 3 3 16.3424 -5.75613 5.07752
35 3 3 17.8682 -5.08501 6.70717
36 3 1 18.6633 -4.0081 6.38799
41 3 1 20.0436 -4.08693 6.88642
42 3 1 20.7219 -5.3992 6.80192
43 3 3 20.3369 -6.29635 6.01812
44 3 3 21.8632 -5.61831 7.58914
47 3 2 16.2904 -7.39156 7.23808
52 3 2 21.7442 -5.88272 8.55959
37 3 1 17.9902 -2.78531 6.55474
38 3 1 18.7802 -1.65478 6.39413
39 3 1 20.0703 -1.71164 6.86872
40 3 1 20.8381 -2.91274 6.75039
48 3 2 17.0134 -2.65474 6.07496
49 3 2 18.3086 -0.719114 6.52042
50 3 2 20.5842 -0.768406 6.76238
51 3 2 21.7766 -2.982 7.31459
55 4 3 5.81994 17.7149 8.41141
59 4 1 7.48909 22.0676 9.76412
69 4 2 5.77963 20.8739 9.31349
71 4 2 9.05512 23.1937 10.6766
70 4 2 6.98468 22.9572 9.4594
11 2 1 -12.5808 -23.3037 11.7173
12 2 1 -11.1841 -22.9471 11.34
13 2 3 -10.7926 -23.4343 10.1986
14 2 3 -10.2346 -22.8629 12.3751
24 2 2 -13.2597 -23.0719 10.8806
25 2 2 -12.9431 -22.7552 12.6069
26 2 2 -12.6066 -24.3843 11.9933
21 2 1 -7.64498 -23.8381 13.5369
22 2 3 -7.52943 -24.5906 12.5408
23 2 3 -6.84171 -24.0964 14.7013
31 2 2 -6.96518 -23.6334 15.6152
16 2 1 -9.33853 -20.7104 12.1493
27 2 2 -10.2006 -20.3496 11.644
20 2 1 -7.98912 -22.4312 13.258
28 2 2 -8.4535 -18.7702 12.032
15 2 1 -9.10838 -22.1479 12.3484
17 2 1 -8.23354 -19.8577 12.1964
18 2 1 -7.01259 -20.194 12.8075
19 2 1 -6.81362 -21.4965 13.0242
29 2 2 -6.11826 -19.492 12.6373
30 2 2 -5.85055 -21.737 13.54
1 1 1 18.866 7.38596 14.5631
2 1 1 19.2776 8.61521 14.2778
3 1 1 20.4331 9.21745 14.8095
6 1 2 19.4911 6.63855 15.0594
7 1 2 17.8775 7.09132 14.3357
8 1 2 18.5869 9.19279 13.6821
5 1 4 21.5825 9.29754 13.9188
9 1 2 21.5069 9.74434 12.9742
10 1 2 22.2991 8.54732 14.0372
68 4 2 5.49203 16.0047 10.6113
4 1 3 20.7654 9.11128 16.045
54 4 1 5.5874 17.9065 9.59041
53 4 1 4.834 16.7998 10.369
56 4 3 6.57821 18.4987 10.3291
57 4 1 7.43226 19.7062 10.2193
58 4 1 6.70064 20.9067 9.94107
60 4 1 8.47543 22.2249 10.7061
62 4 1 8.48009 19.8347 11.2318
64 4 3 9.52362 17.8857 10.5133
66 4 2 3.92371 16.4488 9.77388
67 4 2 4.46895 17.2426 11.264
63 4 1 9.25527 18.6219 11.5138
61 4 1 9.18746 21.0638 11.0547
65 4 3 10.0874 18.4504 12.6329
72 4 2 9.99814 21.2567 11.7529
73 4 2 11.04 18.7318 12.5839
ITEM: TIMESTEP
1760
ITEM: NUMBER OF ATOMS
115
ITEM: BOX BOUNDS pp pp pp
-2.8628399999999999e+01 2.8628399999999999e+01
-2.8628399999999999e+01 2.8628399999999999e+01
-2.8628399999999999e+01 2.8628399999999999e+01
ITEM: ATOMS id mol type x y z
74 5 1 12.9093 -12.7364 -12.214
75 5 1 13.4664 -11.3965 -12.5678
76 5 3 13.7414 -11.2335 -13.7835
77 5 3 14.4998 -11.0214 -11.6934
78 5 1 15.1912 -9.84514 -11.6562
87 5 2 12.1498 -13.0414 -12.9572
88 5 2 12.5398 -12.6758 -11.1839
89 5 2 13.7177 -13.5392 -12.3031
83 5 1 16.4801 -9.80533 -11.0478
84 5 1 17.4472 -10.9775 -11.3683
85 5 3 17.1364 -12.169 -11.5284
86 5 3 18.7864 -10.7986 -11.1038
94 5 2 19.2063 -11.2097 -10.283
79 5 1 14.5338 -8.59561 -11.7101
80 5 1 15.2281 -7.40622 -11.6446
90 5 2 13.612 -8.57329 -12.1683
91 5 2 14.6032 -6.54972 -11.4733
81 5 1 16.4114 -7.29003 -10.9231
82 5 1 17.1684 -8.45326 -11.0075
92 5 2 16.9434 -6.34302 -10.9052
93 5 2 18.1718 -8.38796 -10.6774
97 6 3 16.9516 17.6327 -9.93961
112 6 2 18.5638 22.5658 -9.61791
110 6 2 15.957 16.1622 -8.06656
95 6 1 15.4138 17.0885 -8.37926
108 6 2 14.7422 16.7338 -9.22807
109 6 2 14.8185 17.3959 -7.5143
96 6 1 16.3776 18.025 -8.86417
98 6 3 17.2001 18.6303 -7.88331
99 6 1 18.195 19.5831 -8.14803
100 6 1 17.9888 20.7125 -9.0686
101 6 1 18.9389 21.7141 -9.13379
102 6 1 19.7877 21.8926 -7.99959
103 6 1 20.2349 20.7841 -7.37273
104 6 1 19.3333 19.6704 -7.22593
105 6 1 19.9637 18.3122 -6.81824
106 6 3 19.2461 17.3348 -6.41547
107 6 3 21.2799 18.3283 -6.42622
111 6 2 17.2355 20.6478 -9.91217
114 6 2 20.9696 20.9328 -6.57994
115 6 2 21.7781 17.4976 -6.44669
113 6 2 20.4819 22.7798 -8.09026
32 3 1 15.8938 -6.53481 7.17645
45 3 2 14.8297 -6.68243 7.01777
46 3 2 15.9358 -6.18493 8.29152
33 3 1 16.5148 -5.50846 6.3335
34 3 3 16.4071 -5.80985 5.13453
35 3 3 17.8417 -5.10308 6.74437
36 3 1 18.6579 -4.0197 6.4329
41 3 1 19.984 -4.09068 7.01822
42 3 1 20.667 -5.41752 6.81343
43 3 3 20.2639 -6.38195 6.08667
44 3 3 21.7993 -5.53527 7.52828
47 3 2 16.4051 -7.59081 7.1943
52 3 2 21.9587 -5.57601 8.52993
37 3 1 18.0472 -2.76078 6.58225
38 3 1 18.7501 -1.58177 6.43074
39 3 1 20.0854 -1.68834 6.85591
40 3 1 20.7258 -2.90837 6.746
48 3 2 17.0563 -2.62686 6.21264
49 3 2 18.1799 -0.652756 6.65663
50 3 2 20.6721 -0.819018 6.77254
51 3 2 21.6877 -2.93939 7.12599
55 4 3 5.80088 17.6664 8.4031
59 4 1 7.44391 22.077 9.77221
69 4 2 5.86958 20.8416 9.30189
71 4 2 9.12716 23.1092 10.6104
70 4 2 6.8479 22.9661 9.5539
11 2 1 -12.634 -23.1599 11.8411
12 2 1 -11.1613 -22.9256 11.4006
13 2 3 -10.832 -23.3617 10.2362
14 2 3 -10.1851 -22.9638 12.4207
24 2 2 -13.3313 -22.901 10.9289
25 2 2 -12.909 -22.4163 12.6861
26 2 2 -12.7972 -24.1762 12.2145
21 2 1 -7.60946 -23.7856 13.5363
22 2 3 -7.49833 -24.5667 12.5554
23 2 3 -6.84183 -24.1171 14.6302
31 2 2 -7.10181 -23.798 15.5716
16 2 1 -9.31571 -20.717 12.2236
27 2 2 -10.0843 -20.5439 11.4767
20 2 1 -7.97288 -22.3517 13.306
28 2 2 -8.48842 -18.7845 12.1877
15 2 1 -9.07562 -22.0956 12.4481
17 2 1 -8.23799 -19.8219 12.1301
18 2 1 -7.09591 -20.2528 12.8262
19 2 1 -6.84564 -21.6249 12.9904
29 2 2 -6.22408 -19.6458 12.5957
30 2 2 -5.98309 -21.9052 13.4754
1 1 1 18.9403 7.30176 14.4156
2 1 1 19.3128 8.5899 14.2373
3 1 1 20.5132 9.1469 14.7975
6 1 2 19.4835 6.67162 15.0574
7 1 2 18.11 6.89961 13.821
8 1 2 18.7319 9.09565 13.4868
5 1 4 21.6061 9.28819 13.8517
9 1 2 21.3798 9.75789 12.9767
10 1 2 22.3616 8.57847 13.8708
68 4 2 5.69471 16.0193 10.6357
4 1 3 20.7122 9.17131 16.0196
54 4 1 5.59843 17.9092 9.6098
53 4 1 4.8954 16.803 10.3705
56 4 3 6.53944 18.5559 10.4398
57 4 1 7.3631 19.704 10.305
58 4 1 6.72174 20.8881 9.93183
60 4 1 8.48415 22.2402 10.6941
62 4 1 8.48733 19.8293 11.1975
64 4 3 9.5204 17.8312 10.5142
66 4 2 3.94261 16.3902 9.87485
67 4 2 4.5574 17.2415 11.3633
63 4 1 9.26268 18.5915 11.4663
61 4 1 9.20363 21.0462 11.054
65 4 3 10.0704 18.4529 12.6275
72 4 2 10.0634 21.2574 11.6837
73 4 2 10.9087 18.9042 12.7987
ITEM: TIMESTEP
1780
ITEM: NUMBER OF ATOMS
115
ITEM: BOX BOUNDS pp pp pp
-2.8628399999999999e+01 2.8628399999999999e+01
-2.8628399999999999e+01 2.8628399999999999e+01
-2.8628399999999999e+01 2.8628399999999999e+01
ITEM: ATOMS id mol type x y z
74 5 1 12.9129 -12.6961 -12.2167
75 5 1 13.4582 -11.4009 -12.5684
76 5 3 13.7785 -11.1459 -13.7917
77 5 3 14.4892 -11.0385 -11.6785
78 5 1 15.2376 -9.81222 -11.6841
87 5 2 12.1332 -12.968 -13.0045
88 5 2 12.4496 -12.6435 -11.1894
89 5 2 13.6321 -13.5314 -12.3014
83 5 1 16.6109 -9.76297 -11.0805
84 5 1 17.5125 -10.9063 -11.4886
85 5 3 17.1144 -12.1068 -11.4397
86 5 3 18.8353 -10.854 -11.0845
94 5 2 19.1757 -11.1594 -10.267
79 5 1 14.468 -8.59299 -11.6329
80 5 1 15.1548 -7.37756 -11.648
90 5 2 13.6854 -8.58059 -12.3732
91 5 2 14.6775 -6.40528 -11.8214
81 5 1 16.3409 -7.3629 -10.9444
82 5 1 17.1715 -8.47516 -11.1223
92 5 2 16.9325 -6.47028 -10.914
93 5 2 18.109 -8.44069 -10.6414
97 6 3 16.9195 17.6797 -9.89169
112 6 2 18.6871 22.6096 -9.80467
110 6 2 15.8127 16.1383 -7.88356
95 6 1 15.3871 17.0413 -8.31357
108 6 2 14.7033 16.7926 -9.12934
109 6 2 14.8486 17.5466 -7.52119
96 6 1 16.3765 18.0149 -8.83408
98 6 3 17.1805 18.688 -7.9115
99 6 1 18.2444 19.5182 -8.21034
100 6 1 17.9928 20.6532 -9.00757
101 6 1 19.0052 21.6788 -9.16185
102 6 1 19.7209 21.9244 -8.02001
103 6 1 20.1966 20.7398 -7.37948
104 6 1 19.2566 19.6391 -7.21925
105 6 1 19.9646 18.4052 -6.87516
106 6 3 19.302 17.5272 -6.33769
107 6 3 21.2914 18.4154 -6.36222
111 6 2 17.4895 20.4418 -9.91216
114 6 2 20.7943 20.9718 -6.49353
115 6 2 21.8102 17.5496 -6.21254
113 6 2 20.4404 22.7333 -8.20829
32 3 1 15.8703 -6.59976 7.21101
45 3 2 14.8501 -6.79399 6.92436
46 3 2 15.9007 -6.41729 8.28465
33 3 1 16.4752 -5.5532 6.36444
34 3 3 16.4119 -5.76449 5.14949
35 3 3 17.7408 -5.13125 6.84236
36 3 1 18.5643 -4.03853 6.4837
41 3 1 19.9345 -4.11111 6.93149
42 3 1 20.6853 -5.42633 6.82134
43 3 3 20.2507 -6.38432 6.14943
44 3 3 21.8226 -5.54952 7.51722
47 3 2 16.3646 -7.58881 7.10212
52 3 2 21.7242 -5.60245 8.5072
37 3 1 18.0312 -2.70627 6.44251
38 3 1 18.8555 -1.59953 6.39371
39 3 1 20.0979 -1.68958 6.92083
40 3 1 20.7812 -2.93355 6.77663
48 3 2 17.0156 -2.49003 6.10096
49 3 2 18.2697 -0.652493 6.53358
50 3 2 20.709 -0.791969 6.78191
51 3 2 21.8037 -2.94301 7.16419
55 4 3 5.83856 17.6522 8.48696
59 4 1 7.42535 22.0484 9.80864
69 4 2 5.8531 20.8443 9.07953
71 4 2 9.15137 23.1311 10.6844
70 4 2 6.84017 22.9441 9.57215
11 2 1 -12.6246 -23.0802 11.8835
12 2 1 -11.2093 -22.932 11.4556
13 2 3 -10.9373 -23.35 10.3165
14 2 3 -10.1612 -22.9585 12.3867
24 2 2 -13.2895 -22.8364 11.0561
25 2 2 -12.8671 -22.5388 12.7733
26 2 2 -12.7614 -24.1623 12.031
21 2 1 -7.66797 -23.8431 13.5791
22 2 3 -7.45791 -24.6092 12.5741
23 2 3 -6.81663 -24.0812 14.6342
31 2 2 -7.01834 -23.6284 15.4809
16 2 1 -9.27622 -20.6945 12.0884
27 2 2 -10.0889 -20.3981 11.4935
20 2 1 -7.91807 -22.359 13.2919
28 2 2 -8.33478 -18.8259 11.9889
15 2 1 -9.01132 -22.0961 12.3407
17 2 1 -8.16548 -19.8017 12.114
18 2 1 -7.05576 -20.1717 12.8802
19 2 1 -6.75571 -21.529 13.0043
29 2 2 -6.22582 -19.5477 12.8909
30 2 2 -5.83245 -21.7484 13.6003
1 1 1 18.8224 7.3904 14.3434
2 1 1 19.3192 8.61595 14.0878
3 1 1 20.5555 9.05954 14.731
6 1 2 19.3866 6.71622 14.9775
7 1 2 17.8713 7.03521 13.9033
8 1 2 18.7135 9.3768 13.5479
5 1 4 21.6286 9.25849 13.8828
9 1 2 21.5067 10.0065 13.2096
10 1 2 22.3459 8.57799 13.687
68 4 2 5.60831 16.103 10.7727
4 1 3 20.743 9.2654 15.9454
54 4 1 5.5053 17.9546 9.67678
53 4 1 4.90938 16.8975 10.4497
56 4 3 6.55115 18.5638 10.4847
57 4 1 7.31328 19.6952 10.2601
58 4 1 6.64779 20.919 9.92313
60 4 1 8.47367 22.2479 10.7349
62 4 1 8.46051 19.8713 11.14
64 4 3 9.58326 17.869 10.4711
66 4 2 4.08173 16.5509 9.88203
67 4 2 4.52967 17.3476 11.3711
63 4 1 9.2822 18.6569 11.3937
61 4 1 9.19316 21.0981 11.0605
65 4 3 10.0751 18.5264 12.5394
72 4 2 9.87688 21.3519 11.7653
73 4 2 10.9377 19.0614 12.6119
ITEM: TIMESTEP
1800
ITEM: NUMBER OF ATOMS
115
ITEM: BOX BOUNDS pp pp pp
-2.8628399999999999e+01 2.8628399999999999e+01
-2.8628399999999999e+01 2.8628399999999999e+01
-2.8628399999999999e+01 2.8628399999999999e+01
ITEM: ATOMS id mol type x y z
74 5 1 12.7904 -12.6967 -12.2124
75 5 1 13.6178 -11.4495 -12.6012
76 5 3 13.8493 -11.2219 -13.8326
77 5 3 14.5286 -10.9638 -11.6333
78 5 1 15.2058 -9.75111 -11.7204
87 5 2 11.8643 -12.9408 -12.8115
88 5 2 12.5035 -12.5617 -11.1872
89 5 2 13.4402 -13.5433 -12.3281
83 5 1 16.5608 -9.78272 -11.1968
84 5 1 17.4358 -10.9727 -11.5354
85 5 3 17.0145 -12.1761 -11.4302
86 5 3 18.8013 -10.8565 -11.1032
94 5 2 19.0139 -10.8704 -10.1124
79 5 1 14.4119 -8.60615 -11.6773
80 5 1 15.1515 -7.44671 -11.7125
90 5 2 13.3933 -8.55618 -12.1138
91 5 2 14.6739 -6.5575 -11.5797
81 5 1 16.371 -7.38996 -10.9681
82 5 1 17.2118 -8.49963 -11.1757
92 5 2 16.8763 -6.41805 -10.8685
93 5 2 18.1119 -8.41691 -10.6161
97 6 3 16.9382 17.625 -9.94619
112 6 2 18.6255 22.5285 -9.67464
110 6 2 15.8755 16.0968 -7.76371
95 6 1 15.3241 17.0009 -8.24546
108 6 2 14.6544 16.715 -9.0158
109 6 2 14.8034 17.684 -7.43756
96 6 1 16.3519 17.9578 -8.84709
98 6 3 17.1364 18.6094 -7.91183
99 6 1 18.2083 19.5703 -8.18675
100 6 1 17.8846 20.6498 -9.06414
101 6 1 18.8852 21.6608 -9.16976
102 6 1 19.6548 21.8999 -8.05409
103 6 1 20.1177 20.8033 -7.33557
104 6 1 19.3299 19.6475 -7.23827
105 6 1 20.009 18.3869 -6.78621
106 6 3 19.2879 17.5088 -6.26628
107 6 3 21.3369 18.4077 -6.29984
111 6 2 17.2363 20.5043 -9.88554
114 6 2 20.7281 21.086 -6.52713
115 6 2 21.7795 17.4938 -6.09868
113 6 2 20.3284 22.7426 -8.2089
32 3 1 15.8429 -6.69118 7.23062
45 3 2 14.7797 -6.81666 6.80484
46 3 2 15.8554 -6.59561 8.3283
33 3 1 16.5187 -5.61199 6.4283
34 3 3 16.4172 -5.68919 5.17656
35 3 3 17.7472 -5.05619 6.87631
36 3 1 18.5424 -3.97842 6.42862
41 3 1 19.9109 -4.08722 6.76626
42 3 1 20.6584 -5.41218 6.75654
43 3 3 20.1828 -6.38409 6.23213
44 3 3 21.8604 -5.6547 7.46446
47 3 2 16.2306 -7.7063 7.03451
52 3 2 21.8262 -5.63592 8.52571
37 3 1 17.9262 -2.71741 6.38471
38 3 1 18.8577 -1.61086 6.33821
39 3 1 20.0999 -1.73415 7.02199
40 3 1 20.7831 -2.96011 6.74895
48 3 2 17.0343 -2.51876 5.77146
49 3 2 18.3637 -0.643926 6.33762
50 3 2 20.7812 -0.898715 7.11447
51 3 2 21.8183 -3.00593 7.15725
55 4 3 5.90438 17.6157 8.56345
59 4 1 7.43428 22.1376 9.84085
69 4 2 5.86378 20.8282 9.29669
71 4 2 9.04521 23.1309 10.714
70 4 2 6.99108 23.0159 9.50169
11 2 1 -12.5397 -23.0989 11.9244
12 2 1 -11.1632 -22.834 11.4479
13 2 3 -10.9071 -23.3378 10.3122
14 2 3 -10.1735 -22.9221 12.3789
24 2 2 -13.29 -22.9834 11.086
25 2 2 -12.7545 -22.5158 12.8649
26 2 2 -12.5796 -24.251 12.1455
21 2 1 -7.62061 -23.8122 13.5515
22 2 3 -7.38472 -24.6391 12.6293
23 2 3 -6.82386 -23.9884 14.6755
31 2 2 -6.98576 -23.4587 15.5406
16 2 1 -9.24432 -20.6445 12.1118
27 2 2 -9.93424 -20.3797 11.284
20 2 1 -7.94161 -22.4302 13.1364
28 2 2 -8.33752 -18.7288 11.9724
15 2 1 -9.02139 -22.0569 12.2802
17 2 1 -8.15326 -19.8095 12.0629
18 2 1 -7.08235 -20.1011 12.951
19 2 1 -6.83647 -21.4864 13.0462
29 2 2 -6.10395 -19.5253 12.8335
30 2 2 -6.02076 -21.6868 13.7371
1 1 1 18.6811 7.46404 14.3074
2 1 1 19.3095 8.61116 14.0976
3 1 1 20.6144 9.00143 14.6635
6 1 2 19.0445 6.66676 14.883
7 1 2 17.8227 7.38706 13.7039
8 1 2 18.8909 9.27873 13.3916
5 1 4 21.8059 9.17234 13.8658
9 1 2 21.9414 10.1322 13.505
10 1 2 22.1253 8.42731 13.186
68 4 2 5.47339 15.937 10.5537
4 1 3 20.7023 9.41669 15.84
54 4 1 5.5935 17.9687 9.71806
53 4 1 4.89699 16.8977 10.5205
56 4 3 6.5744 18.6244 10.447
57 4 1 7.35537 19.7308 10.2085
58 4 1 6.64571 20.9087 9.96781
60 4 1 8.45567 22.2358 10.7391
62 4 1 8.53052 19.8897 11.0883
64 4 3 9.65143 17.904 10.4696
66 4 2 4.06064 16.6053 9.89075
67 4 2 4.53426 17.2171 11.5285
63 4 1 9.27854 18.6057 11.3994
61 4 1 9.27665 21.0589 10.9832
65 4 3 10.0801 18.5823 12.5493
72 4 2 10.1598 21.2293 11.6466
73 4 2 10.9074 19.0902 12.5825
ITEM: TIMESTEP
1820
ITEM: NUMBER OF ATOMS
115
ITEM: BOX BOUNDS pp pp pp
-2.8628399999999999e+01 2.8628399999999999e+01
-2.8628399999999999e+01 2.8628399999999999e+01
-2.8628399999999999e+01 2.8628399999999999e+01
ITEM: ATOMS id mol type x y z
74 5 1 12.7645 -12.6471 -12.2629
75 5 1 13.571 -11.4704 -12.5837
76 5 3 13.9522 -11.3912 -13.7926
77 5 3 14.5215 -11.0143 -11.6641
78 5 1 15.2529 -9.83933 -11.8364
87 5 2 11.8961 -12.8141 -12.9756
88 5 2 12.4105 -12.5615 -11.1817
89 5 2 13.4717 -13.5042 -12.4592
83 5 1 16.5641 -9.85207 -11.2286
84 5 1 17.4642 -10.9895 -11.4353
85 5 3 16.9951 -12.1425 -11.4937
86 5 3 18.7584 -10.9283 -10.96
94 5 2 19.0338 -10.8681 -9.91109
79 5 1 14.4555 -8.6015 -11.6762
80 5 1 15.1473 -7.35665 -11.7027
90 5 2 13.5639 -8.56882 -12.2917
91 5 2 14.641 -6.38415 -11.7438
81 5 1 16.3161 -7.36009 -11.0622
82 5 1 17.1451 -8.54232 -11.1095
92 5 2 16.9132 -6.49962 -11.059
93 5 2 18.0506 -8.34274 -10.5749
97 6 3 16.8908 17.5022 -9.93253
112 6 2 18.2562 22.4865 -9.76598
110 6 2 16.0053 16.0577 -8.10565
95 6 1 15.3333 16.9744 -8.36181
108 6 2 14.5407 16.6829 -8.99412
109 6 2 14.9019 17.4895 -7.47314
96 6 1 16.3728 17.9477 -8.88785
98 6 3 17.1304 18.5252 -7.90678
99 6 1 18.1698 19.4806 -8.1871
100 6 1 17.8512 20.6292 -8.92058
101 6 1 18.6883 21.707 -9.14248
102 6 1 19.6198 21.9856 -8.00886
103 6 1 20.1689 20.7817 -7.42393
104 6 1 19.3112 19.6105 -7.2272
105 6 1 20.0327 18.3658 -6.67636
106 6 3 19.299 17.4324 -6.18754
107 6 3 21.3377 18.4466 -6.20567
111 6 2 17.0428 20.545 -9.6735
114 6 2 20.8457 21.0702 -6.52974
115 6 2 21.9198 17.6104 -6.33154
113 6 2 20.1883 22.861 -8.01265
32 3 1 15.8122 -6.54071 7.16324
45 3 2 14.8262 -6.62192 6.86902
46 3 2 15.9145 -6.16869 8.23374
33 3 1 16.4871 -5.53355 6.35072
34 3 3 16.4688 -5.719 5.1456
35 3 3 17.7257 -5.11502 6.85117
36 3 1 18.5882 -4.04848 6.36584
41 3 1 19.96 -4.13477 6.87159
42 3 1 20.684 -5.49119 6.70076
43 3 3 20.1183 -6.46154 6.1809
44 3 3 21.8395 -5.70258 7.46824
47 3 2 16.2921 -7.52203 7.16764
52 3 2 21.9661 -5.64839 8.5015
37 3 1 18.0023 -2.73625 6.35852
38 3 1 18.8124 -1.5741 6.2847
39 3 1 19.9723 -1.71264 6.99647
40 3 1 20.7297 -2.90856 6.80504
48 3 2 17.0006 -2.62787 5.99735
49 3 2 18.3073 -0.620948 6.46624
50 3 2 20.6631 -0.827884 7.09863
51 3 2 21.6862 -2.81968 7.29721
55 4 3 5.94172 17.5736 8.54571
59 4 1 7.44774 22.0614 9.88803
69 4 2 5.778 20.9304 9.48646
71 4 2 9.15699 23.1301 10.7138
70 4 2 6.85356 22.9724 9.64708
11 2 1 -12.522 -23.2113 11.9791
12 2 1 -11.2166 -22.871 11.4372
13 2 3 -10.8759 -23.3975 10.2906
14 2 3 -10.1846 -22.8128 12.3246
24 2 2 -13.3515 -23.1392 11.2435
25 2 2 -12.7935 -22.4622 12.8596
26 2 2 -12.5625 -24.2898 12.3304
21 2 1 -7.5207 -23.7513 13.5447
22 2 3 -7.43314 -24.7269 12.6988
23 2 3 -6.76377 -23.9509 14.7103
31 2 2 -6.88111 -23.4648 15.5785
16 2 1 -9.25837 -20.6804 11.9938
27 2 2 -10.108 -20.32 11.4597
20 2 1 -7.95835 -22.3725 13.2102
28 2 2 -8.32951 -18.7234 11.7781
15 2 1 -8.97172 -22.0689 12.2515
17 2 1 -8.16534 -19.7857 12.041
18 2 1 -7.16995 -20.1165 12.9556
19 2 1 -6.87519 -21.4586 13.1817
29 2 2 -6.31188 -19.3915 13.0575
30 2 2 -6.07227 -21.5756 13.8478
1 1 1 18.6675 7.49962 14.2955
2 1 1 19.3161 8.65642 14.0801
3 1 1 20.6927 8.8628 14.7054
6 1 2 19.1628 6.68434 14.8301
7 1 2 17.5823 7.49099 13.9486
8 1 2 18.825 9.49767 13.5365
5 1 4 21.8436 9.06268 13.8324
9 1 2 22.4703 9.90703 13.93
10 1 2 21.9389 8.50689 12.9735
68 4 2 5.45053 15.9741 10.5975
4 1 3 20.6932 9.5564 15.7164
54 4 1 5.58576 17.8817 9.73288
53 4 1 4.77664 16.9058 10.4957
56 4 3 6.5489 18.6198 10.5681
57 4 1 7.38897 19.7666 10.2523
58 4 1 6.68264 20.9589 10.0357
60 4 1 8.55949 22.2191 10.7336
62 4 1 8.53594 19.9078 11.1501
64 4 3 9.70574 17.9635 10.4487
66 4 2 3.88017 16.5643 9.84575
67 4 2 4.41608 17.2818 11.4506
63 4 1 9.26637 18.5694 11.4421
61 4 1 9.34634 21.0381 10.898
65 4 3 10.1101 18.6601 12.5262
72 4 2 10.2799 21.1296 11.3924
73 4 2 11.0118 19.1689 12.3924
ITEM: TIMESTEP
1840
ITEM: NUMBER OF ATOMS
115
ITEM: BOX BOUNDS pp pp pp
-2.8628399999999999e+01 2.8628399999999999e+01
-2.8628399999999999e+01 2.8628399999999999e+01
-2.8628399999999999e+01 2.8628399999999999e+01
ITEM: ATOMS id mol type x y z
74 5 1 12.7147 -12.6932 -12.2541
75 5 1 13.5986 -11.4655 -12.6345
76 5 3 14.0726 -11.515 -13.7966
77 5 3 14.5535 -11.0247 -11.7782
78 5 1 15.2474 -9.79404 -11.9062
87 5 2 11.8789 -12.86 -13.0391
88 5 2 12.3689 -12.5355 -11.2183
89 5 2 13.347 -13.623 -12.2921
83 5 1 16.5292 -9.79682 -11.2854
84 5 1 17.529 -10.9616 -11.5111
85 5 3 17.0947 -12.1566 -11.5114
86 5 3 18.7697 -10.9197 -10.8667
94 5 2 18.8893 -10.9264 -9.95265
79 5 1 14.4747 -8.67892 -11.7138
80 5 1 15.1209 -7.44029 -11.8184
90 5 2 13.452 -8.67224 -12.026
91 5 2 14.4156 -6.60426 -11.6427
81 5 1 16.2784 -7.32368 -10.9949
82 5 1 17.0988 -8.49612 -11.1437
92 5 2 16.866 -6.41367 -11.0255
93 5 2 18.0269 -8.38703 -10.6326
97 6 3 16.9219 17.4856 -9.96696
112 6 2 18.1866 22.6884 -9.34608
110 6 2 15.7834 16.0786 -8.11215
95 6 1 15.3181 17.0209 -8.39055
108 6 2 14.5315 16.7735 -9.18613
109 6 2 14.836 17.5228 -7.55213
96 6 1 16.3927 17.9167 -8.91469
98 6 3 17.2265 18.5136 -7.98282
99 6 1 18.2197 19.4999 -8.14442
100 6 1 17.8077 20.6908 -8.75174
101 6 1 18.6523 21.7783 -8.99042
102 6 1 19.5348 21.9205 -7.98681
103 6 1 20.1025 20.8317 -7.39022
104 6 1 19.3117 19.6422 -7.13557
105 6 1 19.9677 18.3287 -6.60313
106 6 3 19.2566 17.4028 -6.20723
107 6 3 21.2598 18.4425 -6.1535
111 6 2 17.2241 20.4685 -9.57068
114 6 2 20.8159 21.1089 -6.65306
115 6 2 21.9831 17.6636 -6.12084
113 6 2 20.305 22.7122 -8.13218
32 3 1 15.7451 -6.34461 7.18432
45 3 2 14.7047 -6.53344 6.75493
46 3 2 15.7187 -5.9658 8.24599
33 3 1 16.5183 -5.42732 6.25624
34 3 3 16.5363 -5.68692 5.02116
35 3 3 17.7678 -5.09979 6.79611
36 3 1 18.5828 -4.10403 6.46218
41 3 1 19.9398 -4.18006 6.88578
42 3 1 20.6689 -5.52833 6.68524
43 3 3 20.0665 -6.52993 6.23888
44 3 3 21.8272 -5.79598 7.42267
47 3 2 16.3025 -7.35054 7.29831
52 3 2 21.9784 -5.47831 8.36183
37 3 1 17.932 -2.85932 6.31789
38 3 1 18.7159 -1.64999 6.31352
39 3 1 19.9928 -1.62036 6.97392
40 3 1 20.6784 -2.90656 6.82416
48 3 2 17.004 -2.80641 5.75304
49 3 2 18.1701 -0.755711 6.19495
50 3 2 20.5188 -0.769508 6.9215
51 3 2 21.672 -2.91946 7.20437
55 4 3 6.00789 17.6411 8.64884
59 4 1 7.45131 22.0948 9.93432
69 4 2 5.81809 20.9634 9.43689
71 4 2 9.27471 23.0681 10.5513
70 4 2 6.96836 23.0688 9.71674
11 2 1 -12.5439 -23.3776 12.0733
12 2 1 -11.2775 -22.8652 11.457
13 2 3 -10.9376 -23.3945 10.2958
14 2 3 -10.1698 -22.7132 12.3158
24 2 2 -13.4362 -23.4276 11.435
25 2 2 -12.8692 -22.7948 12.9243
26 2 2 -12.3697 -24.3719 12.4494
21 2 1 -7.56283 -23.7969 13.5625
22 2 3 -7.50867 -24.7606 12.7048
23 2 3 -6.70786 -23.9482 14.637
31 2 2 -6.82984 -23.3787 15.4613
16 2 1 -9.17333 -20.632 11.936
27 2 2 -9.82983 -20.4197 11.0718
20 2 1 -7.92854 -22.3615 13.188
28 2 2 -8.38085 -18.719 11.8979
15 2 1 -8.94844 -22.0198 12.1691
17 2 1 -8.11485 -19.7731 12.0395
18 2 1 -7.12472 -19.9845 12.9302
19 2 1 -6.87248 -21.3099 13.2001
29 2 2 -6.28017 -19.2877 12.9078
30 2 2 -6.1778 -21.439 13.9941
1 1 1 18.6476 7.48933 14.2612
2 1 1 19.3528 8.62151 14.0448
3 1 1 20.649 8.93505 14.6095
6 1 2 18.9363 6.6893 14.95
7 1 2 17.6924 7.48019 13.7082
8 1 2 18.9217 9.35398 13.3391
5 1 4 21.75 9.03709 13.6561
9 1 2 22.6071 9.62875 13.9087
10 1 2 21.8079 8.24639 12.9474
68 4 2 5.34139 16.1637 10.7139
4 1 3 20.7108 9.59047 15.6489
54 4 1 5.57623 18.0181 9.73449
53 4 1 4.76485 16.9877 10.3916
56 4 3 6.5006 18.605 10.5922
57 4 1 7.32566 19.724 10.3698
58 4 1 6.67512 20.9897 10.0879
60 4 1 8.66346 22.1495 10.6038
62 4 1 8.55421 19.8366 11.061
64 4 3 9.80014 17.8646 10.4347
66 4 2 3.90945 16.6638 9.68268
67 4 2 4.38316 17.5461 11.2684
63 4 1 9.36505 18.603 11.3927
61 4 1 9.33458 20.9438 10.8504
65 4 3 10.1566 18.6058 12.559
72 4 2 10.2866 21.0287 11.4282
73 4 2 11.1889 18.6662 12.4522
ITEM: TIMESTEP
1860
ITEM: NUMBER OF ATOMS
115
ITEM: BOX BOUNDS pp pp pp
-2.8628399999999999e+01 2.8628399999999999e+01
-2.8628399999999999e+01 2.8628399999999999e+01
-2.8628399999999999e+01 2.8628399999999999e+01
ITEM: ATOMS id mol type x y z
74 5 1 12.8136 -12.6311 -12.2152
75 5 1 13.6673 -11.5185 -12.6714
76 5 3 14.1514 -11.6115 -13.8312
77 5 3 14.5554 -11.0532 -11.7887
78 5 1 15.2662 -9.84323 -11.9303
87 5 2 11.8579 -12.7808 -12.767
88 5 2 12.6159 -12.4463 -11.142
89 5 2 13.4135 -13.5742 -12.3641
83 5 1 16.5623 -9.79647 -11.3023
84 5 1 17.5479 -10.9668 -11.5241
85 5 3 17.204 -12.1668 -11.6713
86 5 3 18.7991 -10.8601 -10.9325
94 5 2 18.8384 -10.9822 -9.85917
79 5 1 14.4179 -8.72551 -11.867
80 5 1 15.0226 -7.4658 -11.7982
90 5 2 13.5186 -8.70371 -12.4429
91 5 2 14.3572 -6.6057 -11.7981
81 5 1 16.2595 -7.36954 -11.1389
82 5 1 17.168 -8.46872 -11.2112
92 5 2 16.771 -6.41799 -11.1791
93 5 2 18.0751 -8.28935 -10.6376
97 6 3 17.0293 17.4945 -9.93049
112 6 2 18.1454 22.7293 -9.26903
110 6 2 15.7014 16.0872 -8.14508
95 6 1 15.3249 17.0521 -8.43658
108 6 2 14.6314 16.7998 -9.25469
109 6 2 14.7512 17.5485 -7.60304
96 6 1 16.386 17.9134 -8.93061
98 6 3 17.2916 18.537 -7.9766
99 6 1 18.2307 19.5138 -8.16082
100 6 1 17.6913 20.6897 -8.75267
101 6 1 18.5657 21.8259 -8.85226
102 6 1 19.553 21.9223 -7.88173
103 6 1 20.1162 20.7671 -7.29186
104 6 1 19.2649 19.6795 -7.16456
105 6 1 19.9175 18.4036 -6.60177
106 6 3 19.3015 17.3861 -6.26963
107 6 3 21.2599 18.3547 -6.12656
111 6 2 16.8465 20.6531 -9.4547
114 6 2 20.7834 20.9669 -6.48602
115 6 2 21.8797 17.5646 -6.30656
113 6 2 20.1978 22.8276 -7.88293
32 3 1 15.6276 -6.2079 7.05157
45 3 2 14.5243 -6.32582 6.61802
46 3 2 15.5468 -5.7686 7.99611
33 3 1 16.5162 -5.4143 6.21554
34 3 3 16.5918 -5.59742 5.00224
35 3 3 17.7296 -5.2014 6.81213
36 3 1 18.5999 -4.16067 6.39496
41 3 1 19.9501 -4.15663 6.9395
42 3 1 20.6523 -5.47137 6.64699
43 3 3 20.0253 -6.5094 6.2788
44 3 3 21.7806 -5.8281 7.38919
47 3 2 16.0012 -7.23468 7.30427
52 3 2 21.9624 -5.35008 8.20543
37 3 1 17.9619 -2.84327 6.27315
38 3 1 18.7072 -1.67979 6.37957
39 3 1 19.9908 -1.73978 6.97582
40 3 1 20.6928 -2.9365 6.82693
48 3 2 17.0253 -2.69052 5.73922
49 3 2 18.1441 -0.768426 6.41374
50 3 2 20.5988 -0.788873 7.10338
51 3 2 21.7132 -2.9564 7.29082
55 4 3 6.0506 17.6801 8.66043
59 4 1 7.38632 22.0287 9.93155
69 4 2 5.77033 20.6778 9.54711
71 4 2 9.31694 22.9468 10.2457
70 4 2 6.86527 23.0059 9.86512
11 2 1 -12.4589 -23.4099 12.0581
12 2 1 -11.2456 -22.8911 11.4486
13 2 3 -10.9267 -23.3007 10.2797
14 2 3 -10.1473 -22.7735 12.3202
24 2 2 -13.3697 -23.4365 11.4096
25 2 2 -12.6539 -22.7715 12.9046
26 2 2 -12.3498 -24.4546 12.4938
21 2 1 -7.53834 -23.686 13.4522
22 2 3 -7.68635 -24.6544 12.5901
23 2 3 -6.69602 -23.9809 14.5464
31 2 2 -6.98592 -23.6151 15.443
16 2 1 -9.18646 -20.6842 11.8678
27 2 2 -10.011 -20.4267 11.2269
20 2 1 -7.90081 -22.289 13.1003
28 2 2 -8.34378 -18.626 11.9542
15 2 1 -8.96343 -22.0618 12.1243
17 2 1 -8.08333 -19.6663 11.9401
18 2 1 -7.01587 -20.0193 12.8468
19 2 1 -6.78169 -21.3979 13.1718
29 2 2 -6.21905 -19.3422 12.8765
30 2 2 -6.02111 -21.5925 13.9087
1 1 1 18.5819 7.54156 14.2136
2 1 1 19.3596 8.6102 13.9531
3 1 1 20.7015 8.87871 14.5986
6 1 2 18.7495 6.71683 14.8827
7 1 2 17.612 7.44959 13.7597
8 1 2 18.9226 9.4525 13.3767
5 1 4 21.6981 9.04441 13.6117
9 1 2 22.5854 9.51558 13.9557
10 1 2 21.6892 8.38727 12.7736
68 4 2 5.33154 16.1769 10.6925
4 1 3 20.6992 9.59662 15.6111
54 4 1 5.56673 18.0657 9.7722
53 4 1 4.68124 16.9967 10.4648
56 4 3 6.51166 18.6812 10.6199
57 4 1 7.37358 19.6751 10.3583
58 4 1 6.60152 20.8897 10.1395
60 4 1 8.69597 22.1189 10.5437
62 4 1 8.58892 19.7051 11.1103
64 4 3 9.85398 17.7588 10.3983
66 4 2 3.94206 16.6707 9.84054
67 4 2 4.19152 17.3169 11.4351
63 4 1 9.40081 18.4365 11.3706
61 4 1 9.37063 20.9122 10.7555
65 4 3 10.1447 18.3602 12.5426
72 4 2 10.203 21.0553 11.2885
73 4 2 11.0025 18.9199 12.5417
ITEM: TIMESTEP
1880
ITEM: NUMBER OF ATOMS
115
ITEM: BOX BOUNDS pp pp pp
-2.8628399999999999e+01 2.8628399999999999e+01
-2.8628399999999999e+01 2.8628399999999999e+01
-2.8628399999999999e+01 2.8628399999999999e+01
ITEM: ATOMS id mol type x y z
74 5 1 12.8846 -12.735 -12.168
75 5 1 13.6916 -11.5512 -12.7037
76 5 3 14.1541 -11.6709 -13.8982
77 5 3 14.6007 -10.9892 -11.8334
78 5 1 15.3313 -9.83456 -11.9416
87 5 2 12.0652 -12.9343 -12.8696
88 5 2 12.3837 -12.5348 -11.153
89 5 2 13.5964 -13.5851 -12.0928
83 5 1 16.5946 -9.80768 -11.321
84 5 1 17.5845 -10.9107 -11.5864
85 5 3 17.2449 -12.114 -11.6759
86 5 3 18.8602 -10.8207 -10.9327
94 5 2 18.9408 -11.1596 -9.97539
79 5 1 14.4291 -8.69658 -11.9716
80 5 1 15.0448 -7.43991 -11.7778
90 5 2 13.4691 -8.72223 -12.4756
91 5 2 14.3729 -6.54141 -11.5141
81 5 1 16.3078 -7.38396 -11.2335
82 5 1 17.1407 -8.50018 -11.2914
92 5 2 16.7341 -6.35224 -11.2348
93 5 2 18.0278 -8.42737 -10.7928
97 6 3 16.9946 17.529 -10.0176
112 6 2 18.1152 22.659 -9.11017
110 6 2 15.7717 16.0944 -7.93986
95 6 1 15.3658 17.0629 -8.39417
108 6 2 14.6806 16.7823 -9.17372
109 6 2 14.7587 17.6469 -7.63317
96 6 1 16.3814 17.9016 -8.95505
98 6 3 17.2648 18.52 -7.97336
99 6 1 18.2093 19.5215 -8.20112
100 6 1 17.7161 20.7325 -8.67648
101 6 1 18.5624 21.8065 -8.66491
102 6 1 19.5026 21.982 -7.68996
103 6 1 20.0871 20.7754 -7.18047
104 6 1 19.2491 19.6114 -7.19645
105 6 1 19.9773 18.3566 -6.69175
106 6 3 19.3292 17.3918 -6.29782
107 6 3 21.2624 18.4172 -6.12881
111 6 2 17.1239 20.726 -9.61117
114 6 2 20.782 20.9348 -6.30893
115 6 2 21.7914 17.5924 -6.04308
113 6 2 20.1573 22.7485 -7.89878
32 3 1 15.4248 -6.21836 7.00513
45 3 2 14.5147 -6.27932 6.43483
46 3 2 15.1676 -5.82033 7.99586
33 3 1 16.4496 -5.42965 6.20797
34 3 3 16.4813 -5.62376 4.95933
35 3 3 17.7022 -5.15808 6.8462
36 3 1 18.558 -4.10273 6.33422
41 3 1 19.9223 -4.18524 6.86426
42 3 1 20.6773 -5.50057 6.72278
43 3 3 20.1781 -6.56543 6.19124
44 3 3 21.8137 -5.74876 7.36074
47 3 2 15.701 -7.2977 7.16778
52 3 2 22.0154 -5.29691 8.26152
37 3 1 17.9645 -2.85717 6.38715
38 3 1 18.7181 -1.69441 6.35978
39 3 1 19.9816 -1.7144 6.943
40 3 1 20.6825 -2.94965 6.79709
48 3 2 17.0678 -2.78032 5.78129
49 3 2 18.1937 -0.771869 6.60833
50 3 2 20.512 -0.806097 7.00608
51 3 2 21.7061 -2.8629 7.11126
55 4 3 6.00183 17.6537 8.61814
59 4 1 7.40434 22.0045 9.90162
69 4 2 5.69659 20.8326 9.89451
71 4 2 9.18402 23.0567 10.2628
70 4 2 6.93563 22.9649 9.82927
11 2 1 -12.4857 -23.3639 12.0491
12 2 1 -11.1666 -22.9624 11.4547
13 2 3 -10.9104 -23.2996 10.2517
14 2 3 -10.0678 -22.8304 12.3451
24 2 2 -13.2184 -23.2253 11.2114
25 2 2 -12.8068 -22.7984 12.9378
26 2 2 -12.5445 -24.3803 12.3544
21 2 1 -7.49622 -23.6883 13.3791
22 2 3 -7.79809 -24.6118 12.5441
23 2 3 -6.63665 -24.0812 14.378
31 2 2 -6.69004 -23.6056 15.2541
16 2 1 -9.15573 -20.599 11.845
27 2 2 -9.76396 -20.3035 10.9827
20 2 1 -7.86407 -22.3179 13.0735
28 2 2 -8.32409 -18.7665 11.8066
15 2 1 -8.96299 -21.9819 12.1949
17 2 1 -8.10873 -19.7618 11.9999
18 2 1 -7.03871 -20.1283 12.829
19 2 1 -6.75501 -21.4625 13.0916
29 2 2 -6.18806 -19.4953 12.7715
30 2 2 -6.01127 -21.5831 13.8314
1 1 1 18.5301 7.5905 14.2
2 1 1 19.3088 8.67551 14.0328
3 1 1 20.6376 8.79106 14.6039
6 1 2 18.8575 6.79695 14.8418
7 1 2 17.5335 7.51339 13.7514
8 1 2 18.8453 9.50121 13.4552
5 1 4 21.6539 8.95169 13.627
9 1 2 22.6309 9.08895 14.0382
10 1 2 21.6561 8.36193 12.8081
68 4 2 5.31227 16.1014 10.7747
4 1 3 20.7235 9.56502 15.5637
54 4 1 5.60733 17.9162 9.7713
53 4 1 4.68548 17.0165 10.4648
56 4 3 6.4804 18.591 10.6435
57 4 1 7.39494 19.6208 10.3543
58 4 1 6.74303 20.9009 10.201
60 4 1 8.64784 22.0872 10.4961
62 4 1 8.6079 19.718 11.0669
64 4 3 9.80938 17.7463 10.4375
66 4 2 3.83041 16.7059 9.80337
67 4 2 4.16363 17.4756 11.3873
63 4 1 9.38058 18.4925 11.3517
61 4 1 9.35099 20.8905 10.6557
65 4 3 10.1559 18.2875 12.5666
72 4 2 10.4648 20.9941 10.7275
73 4 2 11.0916 18.7033 12.5788
ITEM: TIMESTEP
1900
ITEM: NUMBER OF ATOMS
115
ITEM: BOX BOUNDS pp pp pp
-2.8628399999999999e+01 2.8628399999999999e+01
-2.8628399999999999e+01 2.8628399999999999e+01
-2.8628399999999999e+01 2.8628399999999999e+01
ITEM: ATOMS id mol type x y z
74 5 1 12.9409 -12.751 -12.1817
75 5 1 13.731 -11.6122 -12.7854
76 5 3 14.1545 -11.6442 -13.9564
77 5 3 14.6051 -11.0445 -11.8786
78 5 1 15.3242 -9.86306 -12.0263
87 5 2 12.3282 -13.0847 -12.9613
88 5 2 12.3731 -12.3387 -11.3706
89 5 2 13.587 -13.6538 -11.8091
83 5 1 16.5746 -9.78197 -11.3211
84 5 1 17.5972 -10.8457 -11.6016
85 5 3 17.2648 -12.0532 -11.5668
86 5 3 18.8115 -10.7194 -10.8754
94 5 2 18.777 -10.9754 -9.93332
79 5 1 14.4795 -8.69161 -11.9346
80 5 1 15.0272 -7.43842 -11.7948
90 5 2 13.5859 -8.61233 -12.4912
91 5 2 14.3144 -6.70364 -11.5183
81 5 1 16.3146 -7.36212 -11.2306
82 5 1 17.18 -8.52571 -11.2618
92 5 2 16.8525 -6.34176 -11.3339
93 5 2 18.0752 -8.44236 -10.5704
97 6 3 16.9297 17.5204 -10.0421
112 6 2 18.0695 22.8155 -9.13334
110 6 2 15.8555 16.2225 -7.81641
95 6 1 15.3443 17.0595 -8.43257
108 6 2 14.6803 16.5622 -9.20356
109 6 2 14.6843 17.5959 -7.74799
96 6 1 16.367 17.9201 -8.99783
98 6 3 17.231 18.4982 -8.05139
99 6 1 18.1969 19.5028 -8.1461
100 6 1 17.7164 20.7615 -8.71771
101 6 1 18.5765 21.9162 -8.71993
102 6 1 19.4341 21.9768 -7.53616
103 6 1 20.0083 20.7447 -7.12771
104 6 1 19.2271 19.5544 -7.11777
105 6 1 20.0463 18.2551 -6.79065
106 6 3 19.3073 17.4258 -6.30043
107 6 3 21.3128 18.4613 -6.17284
111 6 2 16.9946 20.6972 -9.5308
114 6 2 20.7416 20.8692 -6.3022
115 6 2 21.7977 17.6393 -5.81952
113 6 2 20.0982 22.8366 -7.46752
32 3 1 15.3822 -6.25175 6.97154
45 3 2 14.4297 -6.21289 6.3726
46 3 2 15.1478 -5.90315 8.01161
33 3 1 16.4095 -5.50869 6.18521
34 3 3 16.4364 -5.60887 4.96855
35 3 3 17.5987 -5.14306 6.77269
36 3 1 18.4834 -4.04334 6.42666
41 3 1 19.8692 -4.21837 6.88047
42 3 1 20.6943 -5.47508 6.69014
43 3 3 20.2146 -6.55599 6.26661
44 3 3 21.9505 -5.65506 7.3236
47 3 2 15.6126 -7.29203 7.0421
52 3 2 22.1924 -5.18384 8.17356
37 3 1 17.8825 -2.73855 6.46031
38 3 1 18.7711 -1.60457 6.3741
39 3 1 20.0451 -1.76163 6.91993
40 3 1 20.7107 -3.0142 6.73409
48 3 2 16.9321 -2.68766 5.9765
49 3 2 18.465 -0.564825 6.58417
50 3 2 20.6866 -0.928278 6.81613
51 3 2 21.7018 -3.02969 7.17937
55 4 3 5.94754 17.6399 8.59427
59 4 1 7.47977 21.9999 9.88884
69 4 2 5.5671 20.8121 9.73951
71 4 2 9.23528 22.985 10.2675
70 4 2 7.05478 22.9671 9.7412
11 2 1 -12.5121 -23.3217 12.0172
12 2 1 -11.1648 -23.0029 11.4621
13 2 3 -10.8887 -23.291 10.2676
14 2 3 -10.1046 -22.8223 12.3535
24 2 2 -13.2588 -23.0538 11.2467
25 2 2 -12.6283 -22.8165 13.0445
26 2 2 -12.5916 -24.4017 12.1539
21 2 1 -7.49455 -23.7705 13.3636
22 2 3 -7.82336 -24.7237 12.5096
23 2 3 -6.60568 -24.1504 14.4177
31 2 2 -6.30194 -23.4777 15.1216
16 2 1 -9.15354 -20.6662 11.8102
27 2 2 -9.84091 -20.4568 10.9519
20 2 1 -7.85299 -22.3236 13.1098
28 2 2 -8.24412 -18.6978 11.804
15 2 1 -8.90768 -22.0288 12.1794
17 2 1 -7.98784 -19.7789 11.9219
18 2 1 -7.06411 -20.0366 12.9872
19 2 1 -6.79018 -21.3999 13.0797
29 2 2 -6.24882 -19.3679 13.1492
30 2 2 -5.8354 -21.5227 13.633
1 1 1 18.4919 7.54839 14.2833
2 1 1 19.2359 8.6434 14.0414
3 1 1 20.5915 8.87295 14.5953
6 1 2 18.8752 6.81872 14.9616
7 1 2 17.5027 7.45937 13.8277
8 1 2 18.7581 9.32849 13.4077
5 1 4 21.7549 8.84689 13.7174
9 1 2 22.747 9.01843 14.0748
10 1 2 21.673 8.28871 12.7984
68 4 2 5.12244 16.1014 10.6443
4 1 3 20.669 9.62787 15.6109
54 4 1 5.52363 17.9523 9.71896
53 4 1 4.55828 17.0639 10.3572
56 4 3 6.54386 18.3918 10.6324
57 4 1 7.31236 19.6117 10.3306
58 4 1 6.61886 20.8468 10.2052
60 4 1 8.73679 22.0923 10.5582
62 4 1 8.62578 19.7368 11.0155
64 4 3 9.77066 17.7633 10.4796
66 4 2 3.73775 16.8476 9.61229
67 4 2 4.14345 17.526 11.2246
63 4 1 9.34292 18.5081 11.3903
61 4 1 9.43452 20.8727 10.6479
65 4 3 10.1403 18.3443 12.5701
72 4 2 10.4144 20.9393 11.1974
73 4 2 11.1788 18.3692 12.425
ITEM: TIMESTEP
1920
ITEM: NUMBER OF ATOMS
115
ITEM: BOX BOUNDS pp pp pp
-2.8628399999999999e+01 2.8628399999999999e+01
-2.8628399999999999e+01 2.8628399999999999e+01
-2.8628399999999999e+01 2.8628399999999999e+01
ITEM: ATOMS id mol type x y z
74 5 1 12.9745 -12.7363 -12.2155
75 5 1 13.7851 -11.6228 -12.8454
76 5 3 14.1801 -11.716 -14.0449
77 5 3 14.7251 -11.0935 -11.9231
78 5 1 15.2787 -9.85018 -12.0023
87 5 2 12.2453 -13.1277 -12.9671
88 5 2 12.5382 -12.4373 -11.2244
89 5 2 13.6907 -13.5686 -12.0753
83 5 1 16.5907 -9.76499 -11.3119
84 5 1 17.6425 -10.8399 -11.5333
85 5 3 17.2107 -12.0005 -11.5451
86 5 3 18.8756 -10.754 -10.8899
94 5 2 18.9329 -10.9184 -9.89058
79 5 1 14.4813 -8.70226 -11.9036
80 5 1 15.1169 -7.4569 -11.7296
90 5 2 13.4902 -8.60725 -12.3692
91 5 2 14.4551 -6.58807 -11.5928
81 5 1 16.3818 -7.33902 -11.1809
82 5 1 17.1946 -8.4461 -11.2005
92 5 2 16.8692 -6.41699 -11.2883
93 5 2 18.0808 -8.27814 -10.5796
97 6 3 16.9145 17.5211 -10.0458
112 6 2 18.1298 22.7169 -9.11248
110 6 2 15.7885 16.2256 -7.92577
95 6 1 15.3391 17.0986 -8.43569
108 6 2 14.7707 16.6109 -9.26706
109 6 2 14.6863 17.611 -7.78513
96 6 1 16.4288 17.9637 -8.96838
98 6 3 17.2847 18.5622 -8.0126
99 6 1 18.2948 19.5318 -8.2204
100 6 1 17.7948 20.7539 -8.66612
101 6 1 18.5745 21.8706 -8.62185
102 6 1 19.3435 22.0029 -7.51706
103 6 1 19.9975 20.8209 -7.11709
104 6 1 19.3287 19.6072 -7.18934
105 6 1 19.9905 18.3266 -6.72592
106 6 3 19.274 17.4215 -6.32822
107 6 3 21.2749 18.4175 -6.12335
111 6 2 17.2955 20.7137 -9.66038
114 6 2 20.7267 20.9479 -6.33066
115 6 2 21.6865 17.5842 -5.75857
113 6 2 19.9829 22.8872 -7.50599
32 3 1 15.3122 -6.19934 6.94599
45 3 2 14.2892 -6.12425 6.54755
46 3 2 15.3855 -5.70017 7.93037
33 3 1 16.3912 -5.49835 6.13199
34 3 3 16.3881 -5.64164 4.91694
35 3 3 17.6402 -5.12057 6.84763
36 3 1 18.5075 -4.07066 6.45512
41 3 1 19.8594 -4.19137 6.95319
42 3 1 20.6553 -5.40727 6.74865
43 3 3 20.2387 -6.46826 6.22426
44 3 3 21.9217 -5.48557 7.33713
47 3 2 15.4614 -7.29125 7.08776
52 3 2 21.9534 -5.1353 8.26005
37 3 1 17.9239 -2.69345 6.50654
38 3 1 18.7549 -1.644 6.49515
39 3 1 20.1452 -1.78264 6.89851
40 3 1 20.6276 -3.03953 6.75979
48 3 2 16.9032 -2.47012 6.1739
49 3 2 18.4002 -0.667796 6.67859
50 3 2 20.8459 -0.940937 6.79031
51 3 2 21.7366 -3.02877 6.81633
55 4 3 5.97683 17.6887 8.55719
59 4 1 7.4537 21.935 9.88848
69 4 2 5.83532 20.7786 9.48981
71 4 2 9.17139 23.0854 10.3785
70 4 2 6.88979 22.8771 9.50751
11 2 1 -12.5507 -23.3022 11.9334
12 2 1 -11.1889 -22.8352 11.3853
13 2 3 -10.8626 -23.2739 10.2968
14 2 3 -10.1615 -22.7829 12.3682
24 2 2 -13.3358 -23.2375 11.1647
25 2 2 -12.7858 -22.7224 12.8882
26 2 2 -12.4029 -24.381 12.1722
21 2 1 -7.42298 -23.7674 13.3753
22 2 3 -7.75093 -24.6779 12.5244
23 2 3 -6.57812 -24.1936 14.4001
31 2 2 -6.61304 -23.7009 15.2843
16 2 1 -9.08548 -20.7108 11.8632
27 2 2 -9.68624 -20.4684 11.0446
20 2 1 -7.85206 -22.3386 13.1283
28 2 2 -8.13784 -18.8217 11.588
15 2 1 -8.94925 -22.0743 12.2278
17 2 1 -8.0292 -19.8307 11.9891
18 2 1 -7.08391 -20.0379 12.9216
19 2 1 -6.72252 -21.4541 13.1734
29 2 2 -6.27145 -19.2824 12.8521
30 2 2 -6.01894 -21.5361 13.9736
1 1 1 18.4632 7.54638 14.3775
2 1 1 19.2366 8.56466 14.0404
3 1 1 20.5496 8.88257 14.5651
6 1 2 18.7697 6.91483 15.1901
7 1 2 17.5266 7.43624 13.9372
8 1 2 18.8558 9.25182 13.2838
5 1 4 21.74 8.89043 13.7177
9 1 2 22.6446 9.21969 14.0935
10 1 2 21.794 8.17208 12.9792
68 4 2 5.00736 16.1721 10.6349
4 1 3 20.6205 9.66231 15.5264
54 4 1 5.5745 17.9737 9.70714
53 4 1 4.5394 17.0846 10.3499
56 4 3 6.6095 18.5245 10.5395
57 4 1 7.41655 19.651 10.2975
58 4 1 6.75878 20.7935 10.0952
60 4 1 8.72096 22.0976 10.5054
62 4 1 8.63949 19.7656 11.0358
64 4 3 9.75144 17.7035 10.4274
66 4 2 3.66799 16.8671 9.69211
67 4 2 4.16213 17.4693 11.2833
63 4 1 9.32921 18.485 11.382
61 4 1 9.43841 20.8934 10.6228
65 4 3 10.023 18.4983 12.5358
72 4 2 10.3547 20.9716 11.0748
73 4 2 10.9856 18.5833 12.4684
ITEM: TIMESTEP
1940
ITEM: NUMBER OF ATOMS
115
ITEM: BOX BOUNDS pp pp pp
-2.8628399999999999e+01 2.8628399999999999e+01
-2.8628399999999999e+01 2.8628399999999999e+01
-2.8628399999999999e+01 2.8628399999999999e+01
ITEM: ATOMS id mol type x y z
74 5 1 12.9968 -12.7037 -12.3541
75 5 1 13.8063 -11.6409 -12.8702
76 5 3 14.2493 -11.7313 -14.0404
77 5 3 14.6763 -11.0372 -11.9073
78 5 1 15.354 -9.78162 -11.8638
87 5 2 12.1204 -12.9386 -12.9997
88 5 2 12.6592 -12.453 -11.3009
89 5 2 13.5304 -13.5988 -12.3495
83 5 1 16.7246 -9.71162 -11.2846
84 5 1 17.6739 -10.8798 -11.5032
85 5 3 17.1788 -12.0639 -11.5629
86 5 3 18.9684 -10.7444 -10.8513
94 5 2 19.0913 -10.9621 -9.87634
79 5 1 14.5949 -8.65322 -11.7972
80 5 1 15.1549 -7.35524 -11.7472
90 5 2 13.774 -8.69583 -12.5113
91 5 2 14.477 -6.53354 -11.6624
81 5 1 16.4151 -7.32735 -11.1626
82 5 1 17.2461 -8.44502 -11.2923
92 5 2 16.9267 -6.4586 -11.299
93 5 2 18.1921 -8.27512 -10.8122
97 6 3 17.0301 17.5157 -9.97983
112 6 2 17.9945 22.7437 -8.84935
110 6 2 15.7391 16.1379 -8.04963
95 6 1 15.3726 17.0704 -8.42857
108 6 2 14.6142 16.8955 -9.14584
109 6 2 14.9325 17.6335 -7.50922
96 6 1 16.4241 17.9404 -8.96006
98 6 3 17.2911 18.4517 -8.01001
99 6 1 18.2302 19.4613 -8.26012
100 6 1 17.7493 20.7273 -8.73793
101 6 1 18.5666 21.9088 -8.61976
102 6 1 19.3914 22.0406 -7.474
103 6 1 20.0925 20.8688 -7.1375
104 6 1 19.2999 19.5768 -7.22293
105 6 1 20.007 18.3084 -6.79331
106 6 3 19.3098 17.3683 -6.38907
107 6 3 21.1996 18.4507 -6.15803
111 6 2 17.0965 20.6656 -9.63956
114 6 2 20.6604 21.0113 -6.22365
115 6 2 21.8739 17.6941 -6.04033
113 6 2 19.9033 23.0409 -7.3352
32 3 1 15.336 -6.09972 6.91184
45 3 2 14.3541 -6.05907 6.36068
46 3 2 15.2004 -5.74108 7.98306
33 3 1 16.4186 -5.45754 6.16639
34 3 3 16.4529 -5.59461 4.9535
35 3 3 17.6008 -5.12952 6.81032
36 3 1 18.4542 -4.05034 6.54942
41 3 1 19.8298 -4.14255 6.93503
42 3 1 20.5989 -5.42194 6.82802
43 3 3 20.2404 -6.39465 6.14177
44 3 3 21.9343 -5.44737 7.34692
47 3 2 15.6239 -7.20806 6.9472
52 3 2 22.1445 -5.23513 8.32354
37 3 1 17.8834 -2.76379 6.63348
38 3 1 18.7158 -1.59842 6.46193
39 3 1 20.0444 -1.67536 6.86479
40 3 1 20.6614 -3.00335 6.71151
48 3 2 16.931 -2.59051 6.27271
49 3 2 18.2947 -0.63406 6.58995
50 3 2 20.6206 -0.816757 6.62175
51 3 2 21.5918 -3.02338 7.21412
55 4 3 5.9775 17.782 8.56545
59 4 1 7.50459 22.0028 9.75849
69 4 2 5.91818 20.7771 9.33147
71 4 2 9.42365 22.8096 10.0756
70 4 2 6.92769 22.9385 9.75892
11 2 1 -12.4842 -23.3191 11.8846
12 2 1 -11.1888 -22.8238 11.3666
13 2 3 -10.9043 -23.3455 10.2617
14 2 3 -10.1741 -22.7781 12.3388
24 2 2 -13.2202 -23.1809 11.0535
25 2 2 -12.7554 -22.6793 12.7588
26 2 2 -12.4821 -24.4459 12.0874
21 2 1 -7.46562 -23.8235 13.4115
22 2 3 -7.64601 -24.7015 12.5325
23 2 3 -6.59955 -24.1873 14.4148
31 2 2 -6.91826 -23.904 15.3269
16 2 1 -9.1758 -20.6764 11.818
27 2 2 -9.9688 -20.5371 11.0883
20 2 1 -7.92564 -22.341 13.166
28 2 2 -8.44337 -18.7641 12.0199
15 2 1 -8.97388 -22.0068 12.2686
17 2 1 -8.11111 -19.7672 11.9109
18 2 1 -7.1137 -20.0583 12.9008
19 2 1 -6.89167 -21.3837 13.2085
29 2 2 -6.28546 -19.4013 13.0549
30 2 2 -6.09512 -21.5229 13.8975
1 1 1 18.485 7.59627 14.4454
2 1 1 19.2782 8.54562 13.9388
3 1 1 20.5986 8.84541 14.5945
6 1 2 18.8423 6.91304 15.2589
7 1 2 17.5675 7.28746 14.0174
8 1 2 18.8393 9.19566 13.084
5 1 4 21.719 8.86677 13.7342
9 1 2 22.6043 9.32543 14.035
10 1 2 21.7296 8.10281 13.0296
68 4 2 5.20994 16.1356 10.7441
4 1 3 20.5559 9.73303 15.4915
54 4 1 5.66376 18.075 9.72955
53 4 1 4.73874 17.1302 10.4176
56 4 3 6.71416 18.4529 10.5061
57 4 1 7.42969 19.6218 10.2515
58 4 1 6.75224 20.8322 10.0347
60 4 1 8.76012 22.0049 10.4622
62 4 1 8.67545 19.7626 11.0089
64 4 3 9.61182 17.6453 10.3935
66 4 2 3.80348 16.9724 9.79631
67 4 2 4.49946 17.6805 11.3988
63 4 1 9.38092 18.5136 11.3082
61 4 1 9.43988 20.8462 10.6944
65 4 3 10.013 18.4435 12.5444
72 4 2 10.4183 20.9112 11.2237
73 4 2 10.8073 19.009 12.7762
ITEM: TIMESTEP
1960
ITEM: NUMBER OF ATOMS
115
ITEM: BOX BOUNDS pp pp pp
-2.8628399999999999e+01 2.8628399999999999e+01
-2.8628399999999999e+01 2.8628399999999999e+01
-2.8628399999999999e+01 2.8628399999999999e+01
ITEM: ATOMS id mol type x y z
74 5 1 12.9974 -12.7234 -12.3916
75 5 1 13.8493 -11.5725 -12.8828
76 5 3 14.3136 -11.7775 -14.0193
77 5 3 14.7085 -11.0609 -11.8686
78 5 1 15.3683 -9.78715 -11.8851
87 5 2 12.2465 -13.0716 -13.1699
88 5 2 12.4288 -12.3721 -11.4822
89 5 2 13.5743 -13.6032 -12.1356
83 5 1 16.6847 -9.75092 -11.204
84 5 1 17.6657 -10.832 -11.393
85 5 3 17.2889 -12.0249 -11.4885
86 5 3 18.9599 -10.7856 -10.8813
94 5 2 19.0819 -10.7499 -9.90231
79 5 1 14.5451 -8.56486 -11.8072
80 5 1 15.2143 -7.32456 -11.7582
90 5 2 13.542 -8.55851 -12.2289
91 5 2 14.5642 -6.50453 -11.5431
81 5 1 16.4788 -7.23584 -11.183
82 5 1 17.2525 -8.4171 -11.3002
92 5 2 16.9923 -6.1988 -11.1697
93 5 2 18.2083 -8.3034 -10.7508
97 6 3 17.0305 17.4278 -9.97531
112 6 2 18.0652 22.8001 -8.84206
110 6 2 15.6468 16.0565 -8.11587
95 6 1 15.3516 17.0454 -8.435
108 6 2 14.6153 16.9057 -9.25959
109 6 2 14.842 17.5449 -7.5611
96 6 1 16.546 17.8666 -8.95308
98 6 3 17.3874 18.4715 -7.99931
99 6 1 18.2697 19.5405 -8.18336
100 6 1 17.7365 20.7211 -8.64383
101 6 1 18.4941 21.8395 -8.51834
102 6 1 19.3898 21.9164 -7.46702
103 6 1 20.0826 20.7472 -7.13609
104 6 1 19.303 19.5848 -7.17717
105 6 1 19.9953 18.338 -6.73171
106 6 3 19.2689 17.3529 -6.44385
107 6 3 21.2967 18.4285 -6.14055
111 6 2 17.1525 20.6095 -9.49189
114 6 2 20.7798 20.8099 -6.33975
115 6 2 21.8247 17.5945 -5.85575
113 6 2 19.992 22.8316 -7.37439
32 3 1 15.396 -6.06532 7.06003
45 3 2 14.3787 -5.90453 6.60919
46 3 2 15.3922 -5.73591 8.07031
33 3 1 16.3864 -5.35143 6.15281
34 3 3 16.5784 -5.63556 4.92334
35 3 3 17.6115 -5.13463 6.87368
36 3 1 18.4587 -4.00168 6.57622
41 3 1 19.8523 -4.0937 6.95164
42 3 1 20.62 -5.42418 6.86289
43 3 3 20.2034 -6.39214 6.16632
44 3 3 21.876 -5.51127 7.31918
47 3 2 15.6766 -7.11678 7.05545
52 3 2 22.1248 -5.20846 8.25986
37 3 1 17.8651 -2.7454 6.61162
38 3 1 18.6874 -1.60665 6.38854
39 3 1 19.995 -1.67375 6.88837
40 3 1 20.6485 -2.89435 6.76299
48 3 2 16.8528 -2.62623 6.23245
49 3 2 18.1974 -0.634415 6.54499
50 3 2 20.6607 -0.809266 6.74215
51 3 2 21.6903 -2.89396 7.20516
55 4 3 5.93238 17.7801 8.48368
59 4 1 7.57966 21.943 9.73554
69 4 2 5.83055 20.8499 9.36902
71 4 2 9.29616 23.0545 10.2219
70 4 2 7.16874 22.8131 9.46587
11 2 1 -12.557 -23.2348 11.9774
12 2 1 -11.1641 -22.9629 11.3722
13 2 3 -10.8314 -23.3503 10.1761
14 2 3 -10.1224 -22.7426 12.2808
24 2 2 -13.3251 -22.8433 11.1856
25 2 2 -12.8027 -22.6715 12.9082
26 2 2 -12.6667 -24.3601 12.0753
21 2 1 -7.54551 -23.8089 13.4369
22 2 3 -7.68145 -24.6929 12.4778
23 2 3 -6.72112 -24.1647 14.4789
31 2 2 -6.88608 -23.9108 15.476
16 2 1 -9.26149 -20.6302 11.9474
27 2 2 -9.92425 -20.4393 11.1153
20 2 1 -7.93051 -22.3948 13.1391
28 2 2 -8.44999 -18.7399 11.6374
15 2 1 -8.96206 -22.0428 12.1969
17 2 1 -8.22666 -19.7178 11.8911
18 2 1 -7.22549 -19.9999 12.8371
19 2 1 -6.87982 -21.3803 13.1512
29 2 2 -6.38203 -19.3533 12.7613
30 2 2 -6.13742 -21.4164 13.9179
1 1 1 18.5386 7.58645 14.4568
2 1 1 19.3015 8.51464 13.9155
3 1 1 20.5642 8.90139 14.5524
6 1 2 18.7247 7.041 15.3661
7 1 2 17.5187 7.43991 13.9865
8 1 2 18.9591 8.95221 13.0206
5 1 4 21.6511 8.69296 13.686
9 1 2 22.5457 9.02791 13.9343
10 1 2 21.6201 7.95062 13.0081
68 4 2 5.50762 16.3231 10.8832
4 1 3 20.5974 9.76533 15.4798
54 4 1 5.66327 18.1243 9.68989
53 4 1 4.83479 17.1369 10.5063
56 4 3 6.7057 18.5319 10.4891
57 4 1 7.43421 19.6478 10.2369
58 4 1 6.72253 20.8445 9.98427
60 4 1 8.76578 22.1208 10.4236
62 4 1 8.6313 19.7911 11.0301
64 4 3 9.63467 17.6137 10.4494
66 4 2 4.0512 16.7397 9.80256
67 4 2 4.47083 17.654 11.3977
63 4 1 9.38999 18.4816 11.3299
61 4 1 9.45128 20.9163 10.7931
65 4 3 10.0595 18.3571 12.5396
72 4 2 10.3437 21.005 11.5047
73 4 2 10.3965 19.2201 13.0744
ITEM: TIMESTEP
1980
ITEM: NUMBER OF ATOMS
115
ITEM: BOX BOUNDS pp pp pp
-2.8628399999999999e+01 2.8628399999999999e+01
-2.8628399999999999e+01 2.8628399999999999e+01
-2.8628399999999999e+01 2.8628399999999999e+01
ITEM: ATOMS id mol type x y z
74 5 1 12.9631 -12.7461 -12.342
75 5 1 13.8324 -11.5951 -12.8716
76 5 3 14.3145 -11.7841 -13.9839
77 5 3 14.6532 -10.9883 -11.9184
78 5 1 15.3689 -9.71789 -11.885
87 5 2 12.4198 -13.1366 -13.217
88 5 2 12.2264 -12.3354 -11.5748
89 5 2 13.5678 -13.5604 -11.9426
83 5 1 16.66 -9.68074 -11.1782
84 5 1 17.6813 -10.8029 -11.4577
85 5 3 17.4089 -12.0543 -11.443
86 5 3 18.9905 -10.6895 -10.8585
94 5 2 19.0766 -10.7996 -9.87534
79 5 1 14.5625 -8.51735 -11.8175
80 5 1 15.234 -7.29681 -11.6261
90 5 2 13.7841 -8.44905 -12.5233
91 5 2 14.554 -6.41501 -11.5197
81 5 1 16.5273 -7.23157 -11.0935
82 5 1 17.2995 -8.40061 -11.2882
92 5 2 17.0731 -6.34838 -11.169
93 5 2 18.2426 -8.31136 -10.9231
97 6 3 17.0911 17.4447 -9.9963
112 6 2 17.9742 22.852 -8.76747
110 6 2 15.8249 16.0236 -7.95037
95 6 1 15.4669 16.9598 -8.40475
108 6 2 14.7425 16.7482 -9.32736
109 6 2 14.817 17.4686 -7.65578
96 6 1 16.5316 17.8385 -8.97253
98 6 3 17.3022 18.4555 -7.92547
99 6 1 18.3254 19.4588 -8.11966
100 6 1 17.7474 20.7292 -8.57605
101 6 1 18.5578 21.9024 -8.5576
102 6 1 19.4564 21.9648 -7.5222
103 6 1 20.0629 20.7362 -7.1027
104 6 1 19.2643 19.5733 -7.0468
105 6 1 20.0187 18.3092 -6.66904
106 6 3 19.3803 17.2606 -6.40759
107 6 3 21.2822 18.3182 -6.0961
111 6 2 16.996 20.7165 -9.33947
114 6 2 20.8806 20.7925 -6.34623
115 6 2 21.9186 17.5314 -6.12608
113 6 2 20.0969 22.8093 -7.40344
32 3 1 15.4939 -6.03472 7.02484
45 3 2 14.5322 -6.11782 6.51022
46 3 2 15.4004 -5.37568 7.90463
33 3 1 16.429 -5.29167 6.17079
34 3 3 16.4687 -5.76842 5.0285
35 3 3 17.6009 -4.94037 6.8107
36 3 1 18.5735 -3.97896 6.40692
41 3 1 19.859 -4.13194 6.95317
42 3 1 20.6078 -5.38871 6.77932
43 3 3 20.1403 -6.37909 6.088
44 3 3 21.904 -5.52708 7.32563
47 3 2 15.8705 -7.01082 7.41053
52 3 2 22.1764 -5.09795 8.1969
37 3 1 17.9823 -2.70587 6.50457
38 3 1 18.7584 -1.61131 6.39311
39 3 1 20.0294 -1.62954 6.8864
40 3 1 20.5753 -2.94774 6.80465
48 3 2 16.9784 -2.51169 6.13459
49 3 2 18.288 -0.651606 6.32378
50 3 2 20.6802 -0.782687 6.76951
51 3 2 21.6171 -2.99494 6.94951
55 4 3 5.93296 17.7544 8.42567
59 4 1 7.56255 21.9607 9.64829
69 4 2 5.84754 20.8641 9.37128
71 4 2 9.22163 22.9139 10.3259
70 4 2 7.08068 22.8657 9.29659
11 2 1 -12.564 -23.181 12.0148
12 2 1 -11.2358 -22.9916 11.4088
13 2 3 -10.9249 -23.3075 10.2315
14 2 3 -10.1575 -22.8252 12.2433
24 2 2 -13.4178 -22.9507 11.4282
25 2 2 -12.6019 -22.575 12.8914
26 2 2 -12.6472 -24.1622 12.3416
21 2 1 -7.61439 -23.7129 13.4374
22 2 3 -7.63501 -24.6337 12.4711
23 2 3 -6.89627 -24.1363 14.5567
31 2 2 -7.00209 -23.7338 15.4416
16 2 1 -9.30072 -20.6097 11.8652
27 2 2 -10.1468 -20.3329 11.3349
20 2 1 -7.97003 -22.2535 13.0468
28 2 2 -8.40882 -18.7168 11.5828
15 2 1 -9.00104 -21.995 12.0981
17 2 1 -8.21459 -19.7232 11.8796
18 2 1 -7.23292 -20.0204 12.8231
19 2 1 -6.86333 -21.3413 12.985
29 2 2 -6.3471 -19.3175 12.904
30 2 2 -6.05504 -21.5041 13.6747
1 1 1 18.4521 7.57806 14.4198
2 1 1 19.2758 8.53342 13.9216
3 1 1 20.5586 8.83578 14.567
6 1 2 18.6695 7.07745 15.2987
7 1 2 17.5641 7.35945 13.9227
8 1 2 18.8839 9.08936 13.0252
5 1 4 21.6859 8.67955 13.6383
9 1 2 22.6533 8.84717 14.0592
10 1 2 21.6934 8.03534 12.8139
68 4 2 5.4875 16.393 10.8928
4 1 3 20.6273 9.80879 15.4087
54 4 1 5.67414 18.0472 9.67298
53 4 1 4.79151 17.1729 10.4805
56 4 3 6.63298 18.6349 10.4525
57 4 1 7.49134 19.6908 10.2856
58 4 1 6.75196 20.9061 9.95794
60 4 1 8.63949 22.0908 10.4973
62 4 1 8.67294 19.7419 11.0849
64 4 3 9.68779 17.6315 10.5382
66 4 2 4.05778 16.7235 9.83092
67 4 2 4.333 17.6456 11.4272
63 4 1 9.42322 18.4376 11.4353
61 4 1 9.40678 20.916 10.843
65 4 3 10.1626 18.308 12.6036
72 4 2 10.2339 21.0864 11.5218
73 4 2 10.3979 19.0565 13.2344
ITEM: TIMESTEP
2000
ITEM: NUMBER OF ATOMS
115
ITEM: BOX BOUNDS pp pp pp
-2.8628399999999999e+01 2.8628399999999999e+01
-2.8628399999999999e+01 2.8628399999999999e+01
-2.8628399999999999e+01 2.8628399999999999e+01
ITEM: ATOMS id mol type x y z
74 5 1 12.9103 -12.6479 -12.3277
75 5 1 13.8326 -11.6054 -12.8604
76 5 3 14.2471 -11.7231 -14.0406
77 5 3 14.6547 -10.9554 -11.8883
78 5 1 15.3737 -9.74479 -11.9631
87 5 2 12.2887 -13.0409 -13.189
88 5 2 12.2313 -12.2003 -11.5543
89 5 2 13.5771 -13.4294 -11.9228
83 5 1 16.6651 -9.71905 -11.3342
84 5 1 17.7357 -10.8227 -11.3881
85 5 3 17.4234 -12.0567 -11.4983
86 5 3 19.0235 -10.5515 -10.874
94 5 2 19.3247 -10.6845 -9.91868
79 5 1 14.5937 -8.55601 -11.8054
80 5 1 15.1491 -7.30319 -11.597
90 5 2 13.6553 -8.55729 -12.3526
91 5 2 14.4187 -6.53843 -11.3041
81 5 1 16.4302 -7.33013 -11.0108
82 5 1 17.2599 -8.41175 -11.251
92 5 2 16.9326 -6.39344 -11.0115
93 5 2 18.3486 -8.23477 -10.9955
97 6 3 17.1966 17.4946 -9.86895
112 6 2 18.0605 22.7622 -8.86853
110 6 2 16.0987 16.0738 -7.90079
95 6 1 15.5039 16.8519 -8.43268
108 6 2 14.9189 16.4157 -9.21647
109 6 2 14.8484 17.1551 -7.63465
96 6 1 16.5114 17.8731 -8.92136
98 6 3 17.2789 18.4461 -7.93079
99 6 1 18.2505 19.4862 -7.95541
100 6 1 17.7942 20.712 -8.5393
101 6 1 18.5615 21.8744 -8.49331
102 6 1 19.5661 21.9993 -7.54323
103 6 1 20.1487 20.8204 -7.09745
104 6 1 19.3598 19.5364 -7.02608
105 6 1 20.1009 18.2031 -6.67133
106 6 3 19.4276 17.1392 -6.4042
107 6 3 21.2658 18.2461 -6.0174
111 6 2 17.135 20.6494 -9.43148
114 6 2 20.9289 20.9692 -6.28728
115 6 2 21.9678 17.5249 -6.06194
113 6 2 20.2437 22.8459 -7.62214
32 3 1 15.4648 -6.03235 7.0877
45 3 2 14.4499 -6.1501 6.67437
46 3 2 15.4854 -5.52815 8.06115
33 3 1 16.4375 -5.3426 6.16051
34 3 3 16.4837 -5.83786 4.97014
35 3 3 17.6766 -4.94653 6.74155
36 3 1 18.4945 -3.92983 6.36241
41 3 1 19.8212 -4.0913 6.98852
42 3 1 20.5976 -5.40585 6.73492
43 3 3 20.0711 -6.34662 6.03669
44 3 3 21.8744 -5.55545 7.26429
47 3 2 15.841 -7.0562 7.33264
52 3 2 22.1834 -4.98412 8.06091
37 3 1 17.9188 -2.59913 6.41493
38 3 1 18.7864 -1.4855 6.30895
39 3 1 20.0702 -1.67876 6.89568
40 3 1 20.6889 -2.9696 6.84916
48 3 2 17.0074 -2.42618 5.9299
49 3 2 18.3718 -0.459617 6.49266
50 3 2 20.743 -0.876747 6.60926
51 3 2 21.6365 -2.95741 7.39718
55 4 3 5.91989 17.7946 8.42874
59 4 1 7.58614 22.0438 9.77518
69 4 2 6.01971 20.8709 9.22595
71 4 2 9.39088 22.9874 10.2348
70 4 2 7.0998 22.9624 9.59712
11 2 1 -12.5368 -23.2343 12.0406
12 2 1 -11.3029 -22.9515 11.4403
13 2 3 -11.0793 -23.361 10.2548
14 2 3 -10.1996 -22.9044 12.3069
24 2 2 -13.3509 -23.3831 11.3006
25 2 2 -12.8778 -22.3588 12.7221
26 2 2 -12.5999 -24.1798 12.7069
21 2 1 -7.68124 -23.6638 13.3732
22 2 3 -7.55942 -24.5435 12.4943
23 2 3 -7.02807 -24.0621 14.453
31 2 2 -7.23784 -23.4567 15.2467
16 2 1 -9.30341 -20.6678 11.8135
27 2 2 -10.0567 -20.4692 11.0359
20 2 1 -7.98402 -22.2941 12.9231
28 2 2 -8.55988 -18.6975 11.8705
15 2 1 -9.08646 -22.0687 12.0878
17 2 1 -8.18286 -19.7435 11.8773
18 2 1 -7.18851 -19.9723 12.8143
19 2 1 -6.91677 -21.3462 13.0084
29 2 2 -6.34438 -19.353 12.8888
30 2 2 -6.09932 -21.6474 13.6292
1 1 1 18.4328 7.5933 14.3889
2 1 1 19.3133 8.5506 14.0236
3 1 1 20.6233 8.81114 14.5239
6 1 2 18.6616 6.82945 15.1254
7 1 2 17.4852 7.5441 13.9178
8 1 2 18.9086 9.22815 13.3053
5 1 4 21.7206 8.73669 13.6319
9 1 2 22.7234 9.04425 13.9691
10 1 2 21.5811 8.3357 12.646
68 4 2 5.1941 16.2258 10.6906
4 1 3 20.6604 9.71228 15.3748
54 4 1 5.63041 18.0629 9.65218
53 4 1 4.7368 17.1409 10.3774
56 4 3 6.64135 18.6003 10.4845
57 4 1 7.46834 19.6956 10.2515
58 4 1 6.78588 20.9317 9.96722
60 4 1 8.74932 22.1572 10.5438
62 4 1 8.62058 19.7571 11.1197
64 4 3 9.76918 17.6682 10.5884
66 4 2 3.76073 16.919 9.86004
67 4 2 4.51513 17.7053 11.2913
63 4 1 9.4919 18.5008 11.4193
61 4 1 9.46566 20.9455 10.8587
65 4 3 10.2214 18.4538 12.6189
72 4 2 10.3869 21.0116 11.3501
73 4 2 10.347 19.1969 13.2751
ITEM: TIMESTEP
2020
ITEM: NUMBER OF ATOMS
115
ITEM: BOX BOUNDS pp pp pp
-2.8628399999999999e+01 2.8628399999999999e+01
-2.8628399999999999e+01 2.8628399999999999e+01
-2.8628399999999999e+01 2.8628399999999999e+01
ITEM: ATOMS id mol type x y z
74 5 1 12.8526 -12.6643 -12.3956
75 5 1 13.7056 -11.5269 -12.8488
76 5 3 14.2225 -11.7272 -13.9479
77 5 3 14.6253 -10.9645 -11.9038
78 5 1 15.369 -9.77409 -11.9822
87 5 2 11.9957 -12.8584 -13.041
88 5 2 12.459 -12.4218 -11.3833
89 5 2 13.4642 -13.6115 -12.3289
83 5 1 16.6491 -9.72496 -11.304
84 5 1 17.7899 -10.8033 -11.5254
85 5 3 17.3765 -12.0164 -11.5413
86 5 3 18.9969 -10.5677 -10.8774
94 5 2 19.0904 -10.5293 -9.84216
79 5 1 14.5439 -8.64419 -11.7805
80 5 1 15.1395 -7.37258 -11.6117
90 5 2 13.5198 -8.56216 -12.2606
91 5 2 14.4626 -6.59676 -11.4981
81 5 1 16.3323 -7.26461 -11.0121
82 5 1 17.1886 -8.37583 -11.2894
92 5 2 16.8111 -6.26079 -10.9417
93 5 2 18.0494 -8.30005 -10.6183
97 6 3 17.3329 17.6075 -9.81457
112 6 2 18.0804 22.7281 -8.74637
110 6 2 16.036 15.9586 -7.88576
95 6 1 15.5187 16.786 -8.3688
108 6 2 14.8088 16.4335 -9.11038
109 6 2 14.8916 17.2578 -7.49981
96 6 1 16.5289 17.8158 -8.88738
98 6 3 17.2244 18.4341 -7.80606
99 6 1 18.2963 19.4723 -7.95722
100 6 1 17.7816 20.6907 -8.45186
101 6 1 18.5683 21.8512 -8.41747
102 6 1 19.6303 21.9635 -7.49999
103 6 1 20.2803 20.7795 -7.06874
104 6 1 19.4207 19.5408 -7.03146
105 6 1 20.1076 18.2863 -6.58181
106 6 3 19.4027 17.2165 -6.42035
107 6 3 21.2882 18.2784 -5.8881
111 6 2 17.1875 20.6234 -9.27997
114 6 2 20.9843 20.9306 -6.34886
115 6 2 21.8854 17.4581 -5.91803
113 6 2 20.3122 22.7916 -7.72986
32 3 1 15.437 -6.05805 7.06343
45 3 2 14.4293 -6.09392 6.55994
46 3 2 15.3757 -5.67974 8.04628
33 3 1 16.4484 -5.44441 6.18126
34 3 3 16.5884 -5.82093 4.94671
35 3 3 17.6563 -4.97972 6.70567
36 3 1 18.4947 -3.88082 6.38136
41 3 1 19.81 -4.07787 6.8985
42 3 1 20.4996 -5.41368 6.85097
43 3 3 20.0857 -6.29642 6.0437
44 3 3 21.8517 -5.56501 7.14911
47 3 2 15.6911 -7.07067 7.17535
52 3 2 22.255 -5.15213 7.97949
37 3 1 17.9683 -2.60957 6.53996
38 3 1 18.7825 -1.5219 6.35841
39 3 1 20.059 -1.65026 6.98948
40 3 1 20.6768 -2.91644 7.01104
48 3 2 16.986 -2.49699 6.10805
49 3 2 18.2728 -0.575946 6.36631
50 3 2 20.6938 -0.784815 6.88618
51 3 2 21.6556 -2.93584 7.48899
55 4 3 5.9124 17.8145 8.44745
59 4 1 7.6524 22.1314 9.85595
69 4 2 6.0117 20.8937 9.36895
71 4 2 9.614 22.9842 10.1704
70 4 2 7.14052 23.078 9.88885
11 2 1 -12.6503 -23.2144 12.0475
12 2 1 -11.323 -23.0465 11.3914
13 2 3 -11.0783 -23.4802 10.2204
14 2 3 -10.1988 -22.7499 12.1937
24 2 2 -13.3584 -23.5831 11.3283
25 2 2 -13.041 -22.3023 12.5142
26 2 2 -12.5949 -24.0011 12.8229
21 2 1 -7.75569 -23.7653 13.3183
22 2 3 -7.57131 -24.5757 12.3365
23 2 3 -7.03226 -23.9684 14.507
31 2 2 -7.34332 -23.5103 15.361
16 2 1 -9.28176 -20.6513 11.7585
27 2 2 -9.95784 -20.4808 10.9878
20 2 1 -8.01437 -22.3356 12.9567
28 2 2 -8.40418 -18.7703 11.6139
15 2 1 -9.02794 -22.0241 12.0194
17 2 1 -8.22616 -19.7659 11.9093
18 2 1 -7.29899 -19.984 12.8907
19 2 1 -6.90273 -21.3808 12.9704
29 2 2 -6.52567 -19.2587 13.0448
30 2 2 -6.08765 -21.5781 13.69
1 1 1 18.4218 7.57933 14.4597
2 1 1 19.2697 8.51562 14.0085
3 1 1 20.6524 8.83391 14.5681
6 1 2 18.7332 6.88621 15.2611
7 1 2 17.4429 7.41031 13.9817
8 1 2 18.8489 9.13702 13.283
5 1 4 21.7245 8.81383 13.6421
9 1 2 22.6456 8.91921 13.9586
10 1 2 21.5996 8.15663 12.9012
68 4 2 5.27582 16.207 10.5113
4 1 3 20.7682 9.70198 15.4144
54 4 1 5.61898 18.083 9.68612
53 4 1 4.6948 17.0815 10.2907
56 4 3 6.67601 18.5824 10.4397
57 4 1 7.55504 19.7032 10.2782
58 4 1 6.89307 20.9572 9.97935
60 4 1 8.88018 22.1813 10.4915
62 4 1 8.69144 19.8237 11.1473
64 4 3 9.71537 17.7273 10.6484
66 4 2 3.73066 16.9195 9.66645
67 4 2 4.33825 17.3768 11.2837
63 4 1 9.46511 18.5909 11.4601
61 4 1 9.49741 20.9331 10.7998
65 4 3 10.2738 18.5527 12.6016
72 4 2 10.3985 21.0274 11.3229
73 4 2 10.3469 19.2814 13.2816
ITEM: TIMESTEP
2040
ITEM: NUMBER OF ATOMS
115
ITEM: BOX BOUNDS pp pp pp
-2.8628399999999999e+01 2.8628399999999999e+01
-2.8628399999999999e+01 2.8628399999999999e+01
-2.8628399999999999e+01 2.8628399999999999e+01
ITEM: ATOMS id mol type x y z
74 5 1 12.9228 -12.6952 -12.4126
75 5 1 13.6781 -11.4455 -12.803
76 5 3 14.2106 -11.6533 -13.8996
77 5 3 14.6413 -10.9421 -11.8632
78 5 1 15.3558 -9.73632 -11.8997
87 5 2 12.1056 -12.8908 -13.0644
88 5 2 12.4537 -12.5548 -11.3984
89 5 2 13.5875 -13.5485 -12.2967
83 5 1 16.6796 -9.67509 -11.2795
84 5 1 17.7622 -10.7219 -11.5393
85 5 3 17.4619 -11.9524 -11.5651
86 5 3 18.9364 -10.5922 -10.8381
94 5 2 18.8939 -10.3268 -9.83371
79 5 1 14.5043 -8.62518 -11.7889
80 5 1 15.0656 -7.38572 -11.779
90 5 2 13.529 -8.62096 -12.242
91 5 2 14.3427 -6.6314 -11.5283
81 5 1 16.2647 -7.30214 -11.0984
82 5 1 17.187 -8.35157 -11.1509
92 5 2 16.8085 -6.32514 -11.0919
93 5 2 18.0931 -8.19471 -10.7142
97 6 3 17.2069 17.5451 -9.80198
112 6 2 18.0574 22.8965 -8.62659
110 6 2 15.9437 15.9416 -7.74145
95 6 1 15.5236 16.8294 -8.32174
108 6 2 14.965 16.3736 -9.1971
109 6 2 14.7441 17.418 -7.65491
96 6 1 16.6336 17.8155 -8.71643
98 6 3 17.286 18.4918 -7.71707
99 6 1 18.2911 19.5187 -7.91121
100 6 1 17.7468 20.7771 -8.42271
101 6 1 18.5507 21.9348 -8.39534
102 6 1 19.6177 21.9344 -7.55459
103 6 1 20.1908 20.6962 -7.17864
104 6 1 19.3397 19.5797 -6.94868
105 6 1 20.0575 18.3134 -6.56754
106 6 3 19.3993 17.2673 -6.31213
107 6 3 21.2485 18.2775 -5.78945
111 6 2 16.9371 20.8472 -9.12176
114 6 2 21.0933 20.7991 -6.58341
115 6 2 21.8761 17.4387 -5.67361
113 6 2 20.3035 22.7803 -7.66242
32 3 1 15.3837 -6.09241 6.91319
45 3 2 14.3626 -5.96695 6.40052
46 3 2 15.3275 -5.52319 7.90221
33 3 1 16.4487 -5.40481 6.11044
34 3 3 16.594 -5.89068 4.93715
35 3 3 17.6265 -5.04267 6.79734
36 3 1 18.5016 -3.91394 6.49999
41 3 1 19.835 -4.00769 7.03012
42 3 1 20.4391 -5.40332 6.86839
43 3 3 20.0828 -6.26889 6.00201
44 3 3 21.7861 -5.57021 7.20307
47 3 2 15.538 -7.15194 7.13969
52 3 2 22.1075 -5.28003 8.1207
37 3 1 17.8601 -2.59607 6.58947
38 3 1 18.7556 -1.52352 6.40921
39 3 1 19.968 -1.58241 7.04694
40 3 1 20.6384 -2.85191 7.096
48 3 2 16.9199 -2.48183 6.08982
49 3 2 18.2983 -0.546693 6.28778
50 3 2 20.556 -0.6869 6.9278
51 3 2 21.5864 -2.88256 7.62548
55 4 3 5.93708 17.8446 8.53079
59 4 1 7.69737 22.0891 9.83686
69 4 2 5.88139 20.9482 9.49734
71 4 2 9.63525 22.9775 10.0839
70 4 2 7.24556 23.0873 9.58187
11 2 1 -12.6212 -23.1997 12.0381
12 2 1 -11.3213 -22.9904 11.348
13 2 3 -11.0172 -23.5292 10.2484
14 2 3 -10.2547 -22.7507 12.2088
24 2 2 -13.411 -23.5885 11.3758
25 2 2 -12.893 -22.2727 12.4516
26 2 2 -12.5228 -23.9487 12.8387
21 2 1 -7.67087 -23.6864 13.2668
22 2 3 -7.51641 -24.608 12.3824
23 2 3 -7.16297 -23.9688 14.5768
31 2 2 -7.42378 -23.33 15.3279
16 2 1 -9.25303 -20.5794 11.6871
27 2 2 -10.0398 -20.3226 10.9183
20 2 1 -8.00643 -22.2658 12.9233
28 2 2 -8.46869 -18.6264 11.9077
15 2 1 -9.06579 -21.9572 11.9793
17 2 1 -8.19054 -19.6597 11.9117
18 2 1 -7.29155 -20.0675 12.9191
19 2 1 -6.91919 -21.3565 13.0298
29 2 2 -6.44179 -19.4008 13.0595
30 2 2 -6.32201 -21.5812 13.9036
1 1 1 18.5114 7.60235 14.6585
2 1 1 19.3082 8.5222 14.0278
3 1 1 20.625 8.91012 14.5703
6 1 2 18.8721 7.16198 15.5691
7 1 2 17.5656 7.23146 14.2159
8 1 2 18.9475 9.04744 13.0649
5 1 4 21.7903 8.72864 13.7001
9 1 2 22.7703 8.98606 14.0597
10 1 2 21.7556 8.14044 12.8682
68 4 2 5.19193 16.1534 10.3576
4 1 3 20.7473 9.73232 15.5489
54 4 1 5.55732 18.1249 9.71078
53 4 1 4.59345 17.1042 10.2439
56 4 3 6.66424 18.5535 10.4909
57 4 1 7.53108 19.6712 10.2611
58 4 1 6.86745 20.9664 10.0558
60 4 1 8.99493 22.1627 10.434
62 4 1 8.70811 19.7973 11.1168
64 4 3 9.67653 17.7641 10.6495
66 4 2 3.68522 17.0695 9.68736
67 4 2 4.25715 17.3336 11.2633
63 4 1 9.43102 18.5569 11.5389
61 4 1 9.55991 20.967 10.8741
65 4 3 10.3921 18.7027 12.523
72 4 2 10.4583 21.0935 11.5568
73 4 2 10.1753 19.2693 13.3743
ITEM: TIMESTEP
2060
ITEM: NUMBER OF ATOMS
115
ITEM: BOX BOUNDS pp pp pp
-2.8628399999999999e+01 2.8628399999999999e+01
-2.8628399999999999e+01 2.8628399999999999e+01
-2.8628399999999999e+01 2.8628399999999999e+01
ITEM: ATOMS id mol type x y z
74 5 1 12.8669 -12.6879 -12.3579
75 5 1 13.7044 -11.5267 -12.7711
76 5 3 14.1825 -11.5098 -13.9166
77 5 3 14.5372 -11.0166 -11.802
78 5 1 15.3103 -9.81648 -11.9344
87 5 2 12.1624 -12.9827 -13.2268
88 5 2 12.2418 -12.4627 -11.4968
89 5 2 13.4982 -13.561 -12.1999
83 5 1 16.6434 -9.72562 -11.2305
84 5 1 17.7073 -10.7379 -11.4559
85 5 3 17.441 -11.9453 -11.5978
86 5 3 18.9325 -10.624 -10.8586
94 5 2 19.0313 -10.651 -9.88485
79 5 1 14.4884 -8.65588 -11.8875
80 5 1 15.1166 -7.36151 -11.8235
90 5 2 13.5167 -8.63421 -12.4255
91 5 2 14.452 -6.49653 -11.7621
81 5 1 16.2481 -7.29883 -11.0913
82 5 1 17.1673 -8.42959 -11.1944
92 5 2 16.7418 -6.41035 -10.9996
93 5 2 18.0537 -8.27888 -10.5032
97 6 3 17.182 17.4193 -9.78104
112 6 2 18.0924 22.8402 -8.8146
110 6 2 15.8924 15.9543 -7.98402
95 6 1 15.4943 16.926 -8.37416
108 6 2 14.9619 16.6953 -9.32458
109 6 2 14.8162 17.4024 -7.70836
96 6 1 16.6311 17.8452 -8.7078
98 6 3 17.3774 18.4915 -7.69368
99 6 1 18.2736 19.5744 -7.85495
100 6 1 17.6474 20.7907 -8.38829
101 6 1 18.5508 21.933 -8.44879
102 6 1 19.6644 22.0172 -7.60822
103 6 1 20.1779 20.7237 -7.2049
104 6 1 19.3114 19.6082 -6.88441
105 6 1 20.0303 18.3226 -6.51899
106 6 3 19.4511 17.2749 -6.22913
107 6 3 21.1904 18.4014 -5.76257
111 6 2 16.9682 20.7212 -9.23683
114 6 2 21.0879 20.8312 -6.63243
115 6 2 21.8 17.6514 -5.60521
113 6 2 20.3607 22.7992 -7.77542
32 3 1 15.3548 -6.04612 6.83107
45 3 2 14.4342 -5.94177 6.27069
46 3 2 15.1857 -5.54587 7.82321
33 3 1 16.4257 -5.35504 6.10005
34 3 3 16.5389 -5.8857 4.91008
35 3 3 17.589 -4.97749 6.83919
36 3 1 18.4168 -3.89326 6.59254
41 3 1 19.7848 -4.04383 7.09583
42 3 1 20.46 -5.33266 6.87325
43 3 3 20.0068 -6.19735 6.06527
44 3 3 21.7463 -5.57459 7.3383
47 3 2 15.571 -7.14283 7.15487
52 3 2 22.0646 -5.08294 8.10463
37 3 1 17.8988 -2.57981 6.59742
38 3 1 18.7107 -1.4727 6.40986
39 3 1 19.9609 -1.60673 7.04642
40 3 1 20.5717 -2.84485 7.03199
48 3 2 16.9021 -2.48323 6.13245
49 3 2 18.1464 -0.562235 6.52723
50 3 2 20.6092 -0.763776 7.03514
51 3 2 21.5628 -2.88516 7.45199
55 4 3 5.84675 17.8426 8.60351
59 4 1 7.81451 22.0357 9.77888
69 4 2 5.97214 20.9592 9.60412
71 4 2 9.6921 22.9084 10.1389
70 4 2 7.37535 22.9494 9.41036
11 2 1 -12.589 -23.2496 12.0503
12 2 1 -11.295 -22.9588 11.367
13 2 3 -11.0315 -23.7146 10.3689
14 2 3 -10.239 -22.6675 12.2124
24 2 2 -13.4012 -23.3356 11.2856
25 2 2 -12.8657 -22.3681 12.6675
26 2 2 -12.7236 -24.1415 12.6896
21 2 1 -7.66402 -23.6902 13.3002
22 2 3 -7.35391 -24.5526 12.4582
23 2 3 -7.18668 -23.9276 14.5787
31 2 2 -7.3879 -23.2325 15.2833
16 2 1 -9.28634 -20.5358 11.6912
27 2 2 -9.85368 -20.4014 10.763
20 2 1 -8.0057 -22.2853 12.931
28 2 2 -8.45527 -18.5797 11.879
15 2 1 -9.07606 -21.9226 12.0023
17 2 1 -8.23631 -19.6316 11.937
18 2 1 -7.27143 -19.9855 12.9325
19 2 1 -6.98158 -21.3214 13.0357
29 2 2 -6.43355 -19.3204 13.0937
30 2 2 -6.07139 -21.6107 13.5616
1 1 1 18.6375 7.67818 14.742
2 1 1 19.3622 8.5413 14.0414
3 1 1 20.6103 8.97935 14.5498
6 1 2 19.0263 7.23843 15.6837
7 1 2 17.7001 7.41417 14.4173
8 1 2 18.9931 8.88469 13.0387
5 1 4 21.7383 8.73317 13.7759
9 1 2 22.6519 8.76633 14.2637
10 1 2 21.6985 8.02795 12.9705
68 4 2 5.05717 16.2 10.4764
4 1 3 20.6483 9.73052 15.5929
54 4 1 5.59831 18.1692 9.75571
53 4 1 4.59831 17.1974 10.2825
56 4 3 6.62751 18.6302 10.5905
57 4 1 7.49474 19.7253 10.3757
58 4 1 6.90961 20.9668 10.1659
60 4 1 8.97121 22.1183 10.4937
62 4 1 8.65045 19.8186 11.1968
64 4 3 9.54411 17.6282 10.6549
66 4 2 3.6329 17.1699 9.6574
67 4 2 4.30586 17.5536 11.2806
63 4 1 9.39788 18.5373 11.5289
61 4 1 9.52869 20.8926 10.9669
65 4 3 10.392 18.7102 12.4665
72 4 2 10.3339 21.065 11.5675
73 4 2 10.2138 19.1273 13.3537
ITEM: TIMESTEP
2080
ITEM: NUMBER OF ATOMS
115
ITEM: BOX BOUNDS pp pp pp
-2.8628399999999999e+01 2.8628399999999999e+01
-2.8628399999999999e+01 2.8628399999999999e+01
-2.8628399999999999e+01 2.8628399999999999e+01
ITEM: ATOMS id mol type x y z
74 5 1 12.8376 -12.7178 -12.4241
75 5 1 13.701 -11.5271 -12.7705
76 5 3 14.1597 -11.4612 -13.9206
77 5 3 14.607 -11.1346 -11.7225
78 5 1 15.2926 -9.8794 -11.8379
87 5 2 12.136 -13.0086 -13.2918
88 5 2 12.2588 -12.5454 -11.5472
89 5 2 13.4317 -13.6386 -12.2032
83 5 1 16.5958 -9.73848 -11.153
84 5 1 17.6518 -10.7801 -11.4002
85 5 3 17.31 -11.9968 -11.5657
86 5 3 18.9523 -10.6219 -10.8451
94 5 2 19.3103 -11.0258 -9.9467
79 5 1 14.5176 -8.62551 -11.9314
80 5 1 15.1251 -7.37732 -11.8144
90 5 2 13.5929 -8.53667 -12.5657
91 5 2 14.4464 -6.49359 -11.8223
81 5 1 16.2712 -7.30883 -11.0512
82 5 1 17.1222 -8.41944 -11.2095
92 5 2 16.8165 -6.37442 -10.9816
93 5 2 18.0764 -8.21186 -10.6696
97 6 3 17.1995 17.4242 -9.84395
112 6 2 18.0412 22.7673 -8.75876
110 6 2 15.8991 15.9998 -7.87332
95 6 1 15.5452 16.9281 -8.34279
108 6 2 14.912 16.6175 -9.178
109 6 2 14.9334 17.4616 -7.62992
96 6 1 16.6084 17.7532 -8.79767
98 6 3 17.2959 18.5045 -7.78036
99 6 1 18.1794 19.5328 -7.86998
100 6 1 17.7217 20.7817 -8.37432
101 6 1 18.5568 21.8929 -8.52463
102 6 1 19.6226 21.9205 -7.6241
103 6 1 20.1542 20.7382 -7.18987
104 6 1 19.275 19.6282 -6.90272
105 6 1 20.0449 18.3062 -6.48866
106 6 3 19.3805 17.2759 -6.21685
107 6 3 21.1137 18.403 -5.67257
111 6 2 16.8386 20.8561 -8.89292
114 6 2 21.0028 20.8617 -6.56158
115 6 2 21.8573 17.6936 -5.75845
113 6 2 20.4662 22.6398 -7.76391
32 3 1 15.2651 -6.11279 6.7593
45 3 2 14.3203 -6.15199 6.20425
46 3 2 15.0276 -5.67414 7.66831
33 3 1 16.3575 -5.3332 6.08596
34 3 3 16.5525 -5.78943 4.89413
35 3 3 17.4258 -4.93632 6.84624
36 3 1 18.3757 -3.90854 6.56655
41 3 1 19.7413 -4.03631 7.0467
42 3 1 20.4815 -5.33688 6.89554
43 3 3 20.0753 -6.23127 6.10171
44 3 3 21.7419 -5.58349 7.34433
47 3 2 15.7728 -7.06154 7.09254
52 3 2 22.0169 -5.059 8.17627
37 3 1 17.8281 -2.64021 6.49409
38 3 1 18.6416 -1.45761 6.46528
39 3 1 19.9499 -1.60586 7.03876
40 3 1 20.5757 -2.83894 6.96667
48 3 2 16.8179 -2.54475 6.11115
49 3 2 18.1441 -0.518997 6.49387
50 3 2 20.6003 -0.742506 6.83406
51 3 2 21.4292 -2.89791 7.63588
55 4 3 5.90901 17.8374 8.56093
59 4 1 7.77692 22.0481 9.71864
69 4 2 5.9676 20.9362 9.49752
71 4 2 9.56894 22.9186 10.2937
70 4 2 7.29546 22.9825 9.43745
11 2 1 -12.6165 -23.1753 12.0526
12 2 1 -11.3581 -22.8733 11.3821
13 2 3 -11.0322 -23.7389 10.4994
14 2 3 -10.2523 -22.6768 12.2113
24 2 2 -13.4545 -23.1358 11.3826
25 2 2 -12.8735 -22.5109 12.8604
26 2 2 -12.5666 -24.2104 12.4959
21 2 1 -7.70256 -23.6792 13.2949
22 2 3 -7.24312 -24.5363 12.5118
23 2 3 -7.17178 -23.9078 14.5394
31 2 2 -7.71423 -23.6412 15.3816
16 2 1 -9.26494 -20.5817 11.6932
27 2 2 -9.9629 -20.4034 10.8529
20 2 1 -8.07216 -22.2721 12.9541
28 2 2 -8.55743 -18.6225 11.6188
15 2 1 -9.0818 -21.9628 11.9778
17 2 1 -8.23389 -19.6653 11.8295
18 2 1 -7.36009 -19.917 12.8665
19 2 1 -6.98288 -21.2884 12.9359
29 2 2 -6.55847 -19.2227 13.0258
30 2 2 -6.23314 -21.4833 13.718
1 1 1 18.6171 7.61912 14.8196
2 1 1 19.2761 8.47011 14.0728
3 1 1 20.6603 9.00112 14.5475
6 1 2 18.9363 7.21516 15.6879
7 1 2 17.6954 7.24936 14.5231
8 1 2 19.0136 8.67653 13.0827
5 1 4 21.7858 8.80738 13.7781
9 1 2 22.7494 8.84894 14.085
10 1 2 21.6512 8.30767 12.9378
68 4 2 5.02432 16.246 10.7349
4 1 3 20.7051 9.75762 15.5307
54 4 1 5.59934 18.1545 9.74555
53 4 1 4.56 17.2602 10.4293
56 4 3 6.55541 18.701 10.6288
57 4 1 7.44543 19.7791 10.4295
58 4 1 6.87888 21.035 10.1052
60 4 1 8.95235 22.1157 10.4481
62 4 1 8.65853 19.7725 11.2044
64 4 3 9.52996 17.6056 10.6338
66 4 2 3.67289 17.1333 9.76349
67 4 2 4.25891 17.8394 11.3319
63 4 1 9.2835 18.4115 11.5745
61 4 1 9.52269 20.9014 10.9142
65 4 3 10.3299 18.6983 12.4905
72 4 2 10.3501 21.0878 11.5578
73 4 2 10.2291 19.3492 13.2716
ITEM: TIMESTEP
2100
ITEM: NUMBER OF ATOMS
115
ITEM: BOX BOUNDS pp pp pp
-2.8628399999999999e+01 2.8628399999999999e+01
-2.8628399999999999e+01 2.8628399999999999e+01
-2.8628399999999999e+01 2.8628399999999999e+01
ITEM: ATOMS id mol type x y z
74 5 1 12.9419 -12.7295 -12.4816
75 5 1 13.8233 -11.5365 -12.7557
76 5 3 14.094 -11.521 -13.9834
77 5 3 14.6769 -11.0249 -11.7679
78 5 1 15.3485 -9.84404 -11.8024
87 5 2 12.0994 -12.7896 -13.2268
88 5 2 12.4931 -12.6836 -11.4276
89 5 2 13.4974 -13.6695 -12.564
83 5 1 16.6267 -9.71444 -11.1789
84 5 1 17.6391 -10.8216 -11.4115
85 5 3 17.2119 -12.034 -11.4465
86 5 3 18.9198 -10.6266 -10.9677
94 5 2 19.0967 -10.7845 -9.93174
79 5 1 14.5511 -8.69089 -11.8703
80 5 1 15.152 -7.42125 -11.8662
90 5 2 13.7411 -8.67207 -12.5835
91 5 2 14.5278 -6.61213 -11.8536
81 5 1 16.2863 -7.33901 -11.0867
82 5 1 17.2047 -8.37497 -11.2063
92 5 2 16.8128 -6.42912 -10.9587
93 5 2 18.204 -8.232 -10.9162
97 6 3 17.2446 17.4875 -9.88467
112 6 2 17.9914 22.7583 -8.68482
110 6 2 16.0801 16.077 -7.69062
95 6 1 15.5252 16.9326 -8.22705
108 6 2 14.8997 16.4737 -8.99541
109 6 2 14.7432 17.3902 -7.50746
96 6 1 16.5434 17.8614 -8.86319
98 6 3 17.2618 18.4682 -7.83414
99 6 1 18.2027 19.457 -7.88302
100 6 1 17.6602 20.7007 -8.27459
101 6 1 18.5277 21.8001 -8.47927
102 6 1 19.6362 21.8247 -7.69998
103 6 1 20.2115 20.6216 -7.22376
104 6 1 19.3013 19.522 -6.96285
105 6 1 20.0268 18.2856 -6.47155
106 6 3 19.3277 17.2674 -6.20033
107 6 3 21.1172 18.4757 -5.59241
111 6 2 17.0134 20.5978 -9.07291
114 6 2 20.9991 20.7957 -6.62788
115 6 2 21.7581 17.6322 -5.44012
113 6 2 20.4152 22.6901 -7.89531
32 3 1 15.204 -6.16894 6.7344
45 3 2 14.2486 -6.08003 6.09825
46 3 2 14.9763 -5.56615 7.68693
33 3 1 16.3112 -5.40061 6.12918
34 3 3 16.5373 -5.71714 4.92948
35 3 3 17.5067 -5.02482 6.84182
36 3 1 18.3338 -3.92218 6.54723
41 3 1 19.6839 -4.06518 7.01527
42 3 1 20.4751 -5.32299 6.98403
43 3 3 20.1526 -6.19367 6.11706
44 3 3 21.8113 -5.53518 7.36639
47 3 2 15.5421 -7.18528 7.12006
52 3 2 22.1655 -5.08031 8.18391
37 3 1 17.7567 -2.59138 6.49292
38 3 1 18.6892 -1.52721 6.40754
39 3 1 19.989 -1.61068 6.98823
40 3 1 20.529 -2.91998 7.03907
48 3 2 16.8451 -2.42683 5.91189
49 3 2 18.1926 -0.550778 6.51917
50 3 2 20.5907 -0.655667 6.91369
51 3 2 21.5519 -2.99727 7.41841
55 4 3 5.96679 17.813 8.61786
59 4 1 7.62906 22.056 9.67675
69 4 2 5.8906 20.9432 9.40589
71 4 2 9.55011 22.8557 10.1011
70 4 2 7.07564 22.9964 9.51874
11 2 1 -12.6345 -23.2035 12.1504
12 2 1 -11.4005 -22.8989 11.3947
13 2 3 -11.1223 -23.7591 10.4933
14 2 3 -10.3154 -22.5661 12.231
24 2 2 -13.5408 -23.2098 11.5066
25 2 2 -12.7893 -22.4156 12.8941
26 2 2 -12.4983 -24.1338 12.7465
21 2 1 -7.74878 -23.7454 13.3104
22 2 3 -7.21672 -24.5328 12.4968
23 2 3 -7.15358 -23.9239 14.5439
31 2 2 -7.51569 -23.5133 15.4353
16 2 1 -9.25834 -20.5809 11.5665
27 2 2 -10.0811 -20.3357 10.8729
20 2 1 -8.0239 -22.2875 12.8593
28 2 2 -8.43418 -18.6466 11.5601
15 2 1 -9.12456 -21.956 11.9506
17 2 1 -8.14922 -19.6874 11.7531
18 2 1 -7.3513 -19.9798 12.8281
19 2 1 -6.96978 -21.3218 13.023
29 2 2 -6.64831 -19.2084 13.1452
30 2 2 -6.19876 -21.5312 13.7094
1 1 1 18.5722 7.59175 14.9175
2 1 1 19.3201 8.39139 14.1578
3 1 1 20.6143 8.9582 14.5329
6 1 2 18.9114 7.29727 15.9271
7 1 2 17.62 7.25816 14.466
8 1 2 18.8729 8.83453 13.3065
5 1 4 21.7506 8.83404 13.6383
9 1 2 22.6919 8.85686 14.103
10 1 2 21.7133 8.36033 12.6819
68 4 2 5.07807 16.4312 10.7367
4 1 3 20.765 9.76822 15.5052
54 4 1 5.55923 18.1813 9.76245
53 4 1 4.5296 17.3344 10.4658
56 4 3 6.49247 18.6628 10.6184
57 4 1 7.36524 19.7169 10.3188
58 4 1 6.82106 20.9798 9.96067
60 4 1 8.84778 22.1247 10.4685
62 4 1 8.57407 19.7853 11.117
64 4 3 9.5637 17.6143 10.684
66 4 2 3.73787 17.0625 9.74463
67 4 2 4.09343 17.9237 11.3554
63 4 1 9.33019 18.5082 11.5473
61 4 1 9.43679 20.9069 10.834
65 4 3 10.2475 18.5504 12.5505
72 4 2 10.4362 21.0778 11.3373
73 4 2 9.99711 19.0673 13.3367
ITEM: TIMESTEP
2120
ITEM: NUMBER OF ATOMS
115
ITEM: BOX BOUNDS pp pp pp
-2.8628399999999999e+01 2.8628399999999999e+01
-2.8628399999999999e+01 2.8628399999999999e+01
-2.8628399999999999e+01 2.8628399999999999e+01
ITEM: ATOMS id mol type x y z
74 5 1 12.9971 -12.729 -12.4813
75 5 1 13.7833 -11.5454 -12.8281
76 5 3 14.171 -11.5954 -14.0539
77 5 3 14.6915 -11.1016 -11.8548
78 5 1 15.3856 -9.80423 -11.8351
87 5 2 12.2697 -12.964 -13.2719
88 5 2 12.4754 -12.6671 -11.5029
89 5 2 13.6551 -13.6125 -12.5676
83 5 1 16.6866 -9.71455 -11.1819
84 5 1 17.6229 -10.802 -11.5179
85 5 3 17.296 -12.0284 -11.3589
86 5 3 18.9158 -10.6165 -11.0047
94 5 2 18.9564 -10.6034 -10.0287
79 5 1 14.5394 -8.67605 -11.7923
80 5 1 15.205 -7.46416 -11.847
90 5 2 13.5673 -8.67216 -12.2607
91 5 2 14.4696 -6.68223 -12.0267
81 5 1 16.3217 -7.2773 -11.0385
82 5 1 17.2655 -8.38176 -11.1788
92 5 2 16.7359 -6.3154 -11.067
93 5 2 18.1316 -8.32272 -10.5202
97 6 3 17.1866 17.4772 -9.91491
112 6 2 18.0675 22.7469 -8.66096
110 6 2 16.1561 16.2788 -7.62184
95 6 1 15.5954 16.9433 -8.27989
108 6 2 15.1039 16.3493 -9.05337
109 6 2 14.8066 17.4413 -7.65433
96 6 1 16.5649 17.874 -8.87183
98 6 3 17.2806 18.4512 -7.82671
99 6 1 18.2366 19.4501 -7.97879
100 6 1 17.6273 20.681 -8.34235
101 6 1 18.4986 21.7757 -8.36298
102 6 1 19.6457 21.8539 -7.67613
103 6 1 20.2123 20.553 -7.29117
104 6 1 19.3056 19.5273 -6.97709
105 6 1 19.9093 18.2553 -6.34817
106 6 3 19.2506 17.1958 -6.18943
107 6 3 21.0373 18.4126 -5.54352
111 6 2 16.6868 20.672 -8.93403
114 6 2 21.1527 20.6362 -6.6954
115 6 2 21.6055 17.6296 -5.34433
113 6 2 20.3548 22.5945 -7.95903
32 3 1 15.1683 -6.0926 6.7706
45 3 2 14.37 -5.78599 6.02801
46 3 2 14.8828 -5.6172 7.78527
33 3 1 16.3846 -5.44986 6.10167
34 3 3 16.5478 -5.57031 4.83623
35 3 3 17.4921 -4.98452 6.86666
36 3 1 18.38 -3.9621 6.61016
41 3 1 19.7572 -4.09608 7.16044
42 3 1 20.4772 -5.36029 7.03508
43 3 3 20.0947 -6.15873 6.11091
44 3 3 21.8103 -5.54943 7.41472
47 3 2 15.3414 -7.10851 6.94917
52 3 2 22.2244 -5.132 8.20564
37 3 1 17.8675 -2.5604 6.50742
38 3 1 18.6878 -1.52185 6.33275
39 3 1 19.9052 -1.63479 7.01464
40 3 1 20.54 -2.87566 6.97743
48 3 2 16.9168 -2.45617 6.03169
49 3 2 18.2726 -0.46588 6.42457
50 3 2 20.5464 -0.698567 6.90158
51 3 2 21.5328 -2.81889 7.41624
55 4 3 5.97407 17.7185 8.63862
59 4 1 7.57779 22.0058 9.6406
69 4 2 5.94877 20.8515 9.24096
71 4 2 9.45643 22.9538 10.0656
70 4 2 7.02857 22.9032 9.47158
11 2 1 -12.6525 -23.1595 12.1417
12 2 1 -11.379 -22.947 11.3941
13 2 3 -11.2639 -23.8218 10.4513
14 2 3 -10.329 -22.5944 12.2753
24 2 2 -13.5717 -23.2661 11.5521
25 2 2 -12.8446 -22.232 12.807
26 2 2 -12.5831 -24.0672 12.7824
21 2 1 -7.7218 -23.7524 13.2947
22 2 3 -7.23195 -24.4447 12.3778
23 2 3 -7.20913 -23.9831 14.5904
31 2 2 -7.52761 -23.5576 15.4026
16 2 1 -9.18716 -20.6473 11.5279
27 2 2 -9.67258 -20.6119 10.6043
20 2 1 -7.98712 -22.313 12.9023
28 2 2 -8.27666 -18.7721 11.5046
15 2 1 -9.09015 -21.9507 12.0428
17 2 1 -8.13207 -19.7648 11.7436
18 2 1 -7.28618 -20.0456 12.8021
19 2 1 -6.92517 -21.4011 13.0092
29 2 2 -6.45769 -19.3153 12.8948
30 2 2 -6.20729 -21.5422 13.8485
1 1 1 18.5505 7.63856 14.9647
2 1 1 19.356 8.39516 14.2321
3 1 1 20.7269 8.88733 14.5751
6 1 2 18.9156 7.25875 15.887
7 1 2 17.5989 7.35157 14.5874
8 1 2 18.8623 8.8734 13.378
5 1 4 21.6947 8.87767 13.5194
9 1 2 22.7737 8.95878 13.7518
10 1 2 21.4842 8.41296 12.6326
68 4 2 4.93302 16.5113 10.9837
4 1 3 20.8186 9.80367 15.414
54 4 1 5.55511 18.1072 9.78363
53 4 1 4.47001 17.389 10.5366
56 4 3 6.49216 18.7012 10.7135
57 4 1 7.35785 19.678 10.3412
58 4 1 6.73545 20.9363 10.0019
60 4 1 8.77213 22.1038 10.361
62 4 1 8.62603 19.7767 11.021
64 4 3 9.6344 17.6048 10.64
66 4 2 3.63447 17.1543 9.76111
67 4 2 4.18495 18.1434 11.3395
63 4 1 9.35967 18.5479 11.4493
61 4 1 9.42539 20.8838 10.6434
65 4 3 10.203 18.4718 12.5852
72 4 2 10.1851 21.0684 11.3174
73 4 2 9.90246 18.8789 13.5052
ITEM: TIMESTEP
2140
ITEM: NUMBER OF ATOMS
115
ITEM: BOX BOUNDS pp pp pp
-2.8628399999999999e+01 2.8628399999999999e+01
-2.8628399999999999e+01 2.8628399999999999e+01
-2.8628399999999999e+01 2.8628399999999999e+01
ITEM: ATOMS id mol type x y z
74 5 1 12.9739 -12.8251 -12.4075
75 5 1 13.678 -11.5973 -12.8836
76 5 3 14.2701 -11.5506 -14.0227
77 5 3 14.6405 -11.0787 -11.9607
78 5 1 15.3504 -9.79969 -11.8917
87 5 2 12.1919 -13.1805 -13.0738
88 5 2 12.5458 -12.4993 -11.424
89 5 2 13.745 -13.7079 -12.2769
83 5 1 16.6439 -9.73461 -11.2415
84 5 1 17.6676 -10.7619 -11.3894
85 5 3 17.3453 -11.9646 -11.3642
86 5 3 19.0067 -10.6627 -10.9762
94 5 2 19.2496 -10.6281 -9.96859
79 5 1 14.5447 -8.62215 -11.7864
80 5 1 15.2445 -7.32991 -11.7725
90 5 2 13.728 -8.67584 -12.46
91 5 2 14.5767 -6.47961 -11.7347
81 5 1 16.4375 -7.24249 -11.0866
82 5 1 17.194 -8.39468 -11.0928
92 5 2 17.0061 -6.31077 -11.1419
93 5 2 18.1052 -8.33712 -10.5349
97 6 3 17.2353 17.4322 -9.87565
112 6 2 17.913 22.7445 -8.5046
110 6 2 16.0961 15.9998 -7.71722
95 6 1 15.6449 16.8508 -8.28005
108 6 2 14.9891 16.5078 -9.06096
109 6 2 15.0066 17.5205 -7.5344
96 6 1 16.5875 17.835 -8.84442
98 6 3 17.3397 18.4121 -7.82434
99 6 1 18.2323 19.4968 -7.93322
100 6 1 17.6422 20.7352 -8.27262
101 6 1 18.4575 21.824 -8.40014
102 6 1 19.618 21.8176 -7.61215
103 6 1 20.2229 20.5767 -7.27872
104 6 1 19.3494 19.5407 -6.9816
105 6 1 19.9059 18.2305 -6.43441
106 6 3 19.1882 17.1948 -6.24439
107 6 3 20.9989 18.3023 -5.54979
111 6 2 16.9281 20.6426 -9.04356
114 6 2 21.1058 20.6696 -6.63058
115 6 2 21.7655 17.5738 -5.52701
113 6 2 20.2295 22.6579 -7.52713
32 3 1 15.1885 -6.05191 6.77744
45 3 2 14.2528 -5.76545 6.24212
46 3 2 15.1288 -5.74043 7.76518
33 3 1 16.3774 -5.3059 6.0716
34 3 3 16.5752 -5.5274 4.82337
35 3 3 17.4783 -4.99793 6.97758
36 3 1 18.4322 -3.9443 6.69803
41 3 1 19.7754 -4.05803 7.17664
42 3 1 20.4776 -5.4108 7.00789
43 3 3 20.024 -6.22571 6.08094
44 3 3 21.8042 -5.54845 7.51363
47 3 2 15.5312 -7.17623 6.76553
52 3 2 22.0562 -5.20907 8.48981
37 3 1 17.8666 -2.62196 6.51356
38 3 1 18.6802 -1.53248 6.29222
39 3 1 19.9053 -1.57238 6.98998
40 3 1 20.5409 -2.84493 7.02544
48 3 2 16.9374 -2.62101 6.05242
49 3 2 18.2321 -0.577421 6.13909
50 3 2 20.5235 -0.681597 6.98762
51 3 2 21.526 -2.75273 7.46677
55 4 3 5.97823 17.6479 8.77443
59 4 1 7.56866 22.0218 9.69734
69 4 2 5.73554 20.9201 9.55778
71 4 2 9.5008 22.8737 10.0134
70 4 2 7.01524 22.9114 9.41615
11 2 1 -12.703 -23.0258 12.0692
12 2 1 -11.3722 -22.9727 11.3618
13 2 3 -11.1943 -23.8399 10.4198
14 2 3 -10.3273 -22.7468 12.2009
24 2 2 -13.5706 -22.8586 11.4003
25 2 2 -12.7196 -22.1631 12.8376
26 2 2 -12.9336 -24.0499 12.4692
21 2 1 -7.67897 -23.6895 13.3045
22 2 3 -7.23833 -24.3592 12.3513
23 2 3 -7.25315 -23.9666 14.6039
31 2 2 -7.66014 -23.4914 15.4289
16 2 1 -9.18816 -20.6518 11.5333
27 2 2 -9.73584 -20.431 10.6383
20 2 1 -8.12678 -22.2987 13.0503
28 2 2 -8.44889 -18.6957 11.6183
15 2 1 -9.09594 -22.0483 11.9804
17 2 1 -8.13167 -19.7383 11.7389
18 2 1 -7.23111 -20.1123 12.7961
19 2 1 -6.9719 -21.4732 12.9509
29 2 2 -6.4397 -19.4435 13.0363
30 2 2 -6.20224 -21.5411 13.6534
1 1 1 18.6235 7.69825 14.9918
2 1 1 19.3525 8.48485 14.2253
3 1 1 20.7418 8.9272 14.5284
6 1 2 19.0227 7.37081 15.9201
7 1 2 17.5882 7.46704 14.7649
8 1 2 18.9377 8.83563 13.2827
5 1 4 21.6772 8.90591 13.4123
9 1 2 22.6605 9.16262 13.6229
10 1 2 21.4842 8.20735 12.7039
68 4 2 4.71226 16.3987 10.7345
4 1 3 20.8789 9.83101 15.3929
54 4 1 5.55039 18.0861 9.86481
53 4 1 4.36653 17.4218 10.4656
56 4 3 6.54303 18.7 10.6862
57 4 1 7.38958 19.7307 10.3904
58 4 1 6.69988 20.9392 9.9414
60 4 1 8.84758 22.085 10.3164
62 4 1 8.70338 19.7851 11.0592
64 4 3 9.62114 17.5628 10.5412
66 4 2 3.56814 17.3931 9.70473
67 4 2 4.01591 18.0263 11.3535
63 4 1 9.35324 18.4925 11.3959
61 4 1 9.46883 20.8661 10.6129
65 4 3 10.1272 18.4866 12.5728
72 4 2 10.4824 20.9522 11.0163
73 4 2 9.88795 18.968 13.4175
ITEM: TIMESTEP
2160
ITEM: NUMBER OF ATOMS
115
ITEM: BOX BOUNDS pp pp pp
-2.8628399999999999e+01 2.8628399999999999e+01
-2.8628399999999999e+01 2.8628399999999999e+01
-2.8628399999999999e+01 2.8628399999999999e+01
ITEM: ATOMS id mol type x y z
74 5 1 13.0343 -12.7549 -12.3067
75 5 1 13.8281 -11.5578 -12.8158
76 5 3 14.2945 -11.6429 -14.0122
77 5 3 14.7063 -11.0603 -11.9348
78 5 1 15.3638 -9.83436 -11.9508
87 5 2 12.407 -13.1663 -13.1655
88 5 2 12.3849 -12.4212 -11.4967
89 5 2 13.6653 -13.6243 -12.0075
83 5 1 16.6755 -9.73373 -11.2388
84 5 1 17.7128 -10.7794 -11.473
85 5 3 17.3698 -11.9841 -11.4032
86 5 3 19.0611 -10.635 -10.9493
94 5 2 19.2539 -10.5191 -9.9609
79 5 1 14.5964 -8.62494 -11.9003
80 5 1 15.2366 -7.37109 -11.7215
90 5 2 13.642 -8.62618 -12.4753
91 5 2 14.5662 -6.52095 -11.6443
81 5 1 16.5075 -7.29362 -11.0981
82 5 1 17.2747 -8.40309 -11.1048
92 5 2 16.9688 -6.32637 -11.1731
93 5 2 18.2471 -8.34812 -10.4893
97 6 3 17.2289 17.3466 -9.80357
112 6 2 18.0085 22.736 -8.55979
110 6 2 16.1375 15.9634 -8.03327
95 6 1 15.5784 16.9051 -8.36676
108 6 2 14.8016 16.5803 -9.13924
109 6 2 15.0445 17.2578 -7.44341
96 6 1 16.5671 17.8769 -8.88132
98 6 3 17.3268 18.4255 -7.8652
99 6 1 18.2066 19.4354 -7.85722
100 6 1 17.6914 20.6911 -8.31636
101 6 1 18.5359 21.788 -8.42698
102 6 1 19.5918 21.8735 -7.48236
103 6 1 20.2613 20.6269 -7.27424
104 6 1 19.3529 19.4558 -6.97086
105 6 1 19.9171 18.1455 -6.53427
106 6 3 19.1213 17.1959 -6.29195
107 6 3 20.9905 18.1898 -5.6526
111 6 2 16.752 20.7032 -8.8745
114 6 2 21.1688 20.7014 -6.73551
115 6 2 21.6961 17.4491 -5.56891
113 6 2 20.2412 22.7105 -7.65157
32 3 1 15.1915 -5.94505 6.76736
45 3 2 14.3157 -5.87198 6.13757
46 3 2 14.9737 -5.55745 7.83543
33 3 1 16.3527 -5.24793 6.13742
34 3 3 16.5561 -5.52863 4.94744
35 3 3 17.5062 -4.98641 6.95274
36 3 1 18.3674 -3.88173 6.6297
41 3 1 19.6801 -4.05921 7.15226
42 3 1 20.4416 -5.3833 7.01626
43 3 3 20.0995 -6.1836 6.10494
44 3 3 21.7136 -5.5078 7.48656
47 3 2 15.585 -6.96043 6.83802
52 3 2 21.9024 -5.42778 8.44285
37 3 1 17.8109 -2.62834 6.40975
38 3 1 18.6655 -1.5326 6.30088
39 3 1 19.9244 -1.62677 6.96462
40 3 1 20.5202 -2.90272 6.98029
48 3 2 16.7821 -2.62945 5.97586
49 3 2 18.2785 -0.558326 6.25348
50 3 2 20.5658 -0.722799 6.85756
51 3 2 21.4396 -2.85968 7.56907
55 4 3 5.87006 17.5963 8.86458
59 4 1 7.60103 22.0119 9.61715
69 4 2 5.84178 20.8941 9.55612
71 4 2 9.45089 22.844 9.97657
70 4 2 6.99706 22.9502 9.58251
11 2 1 -12.6826 -23.0051 11.9969
12 2 1 -11.3345 -23.0098 11.3502
13 2 3 -11.1717 -23.8469 10.4298
14 2 3 -10.2772 -22.7257 12.1788
24 2 2 -13.4723 -22.9016 11.2892
25 2 2 -12.795 -22.1901 12.6522
26 2 2 -12.9113 -23.9614 12.5234
21 2 1 -7.74819 -23.6605 13.3014
22 2 3 -7.24837 -24.2914 12.3438
23 2 3 -7.24349 -24.0162 14.6088
31 2 2 -7.76338 -23.7319 15.3957
16 2 1 -9.2409 -20.7027 11.6147
27 2 2 -9.99779 -20.3155 10.9491
20 2 1 -8.09895 -22.238 13.0531
28 2 2 -8.15455 -18.8259 11.3323
15 2 1 -9.08708 -22.0013 12.0033
17 2 1 -8.10848 -19.8389 11.8107
18 2 1 -7.16884 -20.0438 12.7877
19 2 1 -6.98846 -21.3979 13.0284
29 2 2 -6.26982 -19.462 12.6901
30 2 2 -6.07204 -21.6089 13.5506
1 1 1 18.6673 7.75633 15.0199
2 1 1 19.3947 8.48197 14.1742
3 1 1 20.7903 8.8575 14.5171
6 1 2 19.1126 7.39352 15.9731
7 1 2 17.6065 7.56438 14.8946
8 1 2 18.9396 8.91669 13.3396
5 1 4 21.6444 8.93544 13.4456
9 1 2 22.6062 9.20147 13.6844
10 1 2 21.5665 8.26885 12.6531
68 4 2 4.67109 16.299 10.7347
4 1 3 20.9761 9.8026 15.3562
54 4 1 5.50589 18.1491 9.90276
53 4 1 4.34848 17.3901 10.447
56 4 3 6.52511 18.6533 10.7093
57 4 1 7.3841 19.6705 10.2642
58 4 1 6.80951 20.9603 10.0713
60 4 1 8.82411 22.0831 10.3344
62 4 1 8.59273 19.768 11.0408
64 4 3 9.54483 17.5607 10.5517
66 4 2 3.56923 17.3565 9.67452
67 4 2 3.94448 17.9693 11.2895
63 4 1 9.23013 18.4449 11.422
61 4 1 9.44204 20.8335 10.6692
65 4 3 10.1019 18.4531 12.4515
72 4 2 10.4372 20.9324 11.1893
73 4 2 9.74012 18.6686 13.4103
ITEM: TIMESTEP
2180
ITEM: NUMBER OF ATOMS
115
ITEM: BOX BOUNDS pp pp pp
-2.8628399999999999e+01 2.8628399999999999e+01
-2.8628399999999999e+01 2.8628399999999999e+01
-2.8628399999999999e+01 2.8628399999999999e+01
ITEM: ATOMS id mol type x y z
74 5 1 13.0238 -12.7222 -12.3079
75 5 1 13.8879 -11.6084 -12.7221
76 5 3 14.3206 -11.6486 -13.9556
77 5 3 14.7847 -10.9907 -11.8603
78 5 1 15.4082 -9.75624 -12.0175
87 5 2 12.5036 -13.0773 -13.2056
88 5 2 12.3257 -12.2427 -11.5335
89 5 2 13.5489 -13.5896 -11.9178
83 5 1 16.7254 -9.71921 -11.2569
84 5 1 17.7503 -10.8058 -11.4876
85 5 3 17.3541 -12.003 -11.3985
86 5 3 19.0563 -10.5972 -11.0333
94 5 2 19.316 -10.8239 -10.0886
79 5 1 14.5211 -8.60714 -11.9216
80 5 1 15.2406 -7.39552 -11.8364
90 5 2 13.7157 -8.60971 -12.6013
91 5 2 14.5537 -6.57072 -11.6979
81 5 1 16.5026 -7.32372 -11.1004
82 5 1 17.329 -8.46596 -11.2249
92 5 2 16.926 -6.30705 -11.0264
93 5 2 18.2968 -8.3703 -10.8723
97 6 3 17.2786 17.2955 -9.77566
110 6 2 15.8606 16.2579 -7.82171
95 6 1 15.4163 17.0447 -8.4254
108 6 2 14.925 16.524 -9.32726
109 6 2 14.6593 17.5448 -7.83202
96 6 1 16.5545 17.8327 -8.90659
98 6 3 17.2634 18.4087 -7.82765
99 6 1 18.1854 19.4646 -7.86108
100 6 1 17.6985 20.7523 -8.23815
101 6 1 18.5661 21.8398 -8.36932
102 6 1 19.6206 21.8478 -7.51223
103 6 1 20.1696 20.5961 -7.2
104 6 1 19.256 19.4509 -6.91885
105 6 1 19.9116 18.1477 -6.58073
106 6 3 19.1891 17.1061 -6.33769
107 6 3 21.052 18.1345 -5.78002
111 6 2 17.0472 20.7666 -9.06554
114 6 2 21.0884 20.5969 -6.66126
115 6 2 21.3915 17.2266 -5.52936
112 6 2 18.1386 22.7986 -8.73075
113 6 2 20.2314 22.7308 -7.50051
32 3 1 15.1791 -5.96305 6.77138
45 3 2 14.3436 -6.07186 5.99867
46 3 2 14.812 -5.37634 7.61907
47 3 2 15.4845 -6.97886 7.15601
33 3 1 16.3338 -5.32858 6.09685
34 3 3 16.4878 -5.48978 4.85899
35 3 3 17.4402 -4.98943 6.9206
36 3 1 18.3393 -3.97352 6.57306
41 3 1 19.6646 -4.06494 7.13844
42 3 1 20.3934 -5.35074 7.0632
43 3 3 20.1278 -6.19853 6.14258
44 3 3 21.7418 -5.46725 7.49873
52 3 2 22.0112 -5.37632 8.51901
37 3 1 17.7808 -2.62231 6.463
38 3 1 18.666 -1.51622 6.33313
39 3 1 19.8775 -1.66648 7.03575
40 3 1 20.4879 -2.92594 6.97409
48 3 2 16.8629 -2.53881 6.02562
49 3 2 18.2186 -0.474518 6.39129
50 3 2 20.4684 -0.731476 7.09674
51 3 2 21.4105 -2.96672 7.4468
55 4 3 5.80138 17.64 8.79076
69 4 2 5.86031 20.9204 9.36797
70 4 2 7.18686 22.8703 9.36976
11 2 1 -12.6512 -23.0859 12.0268
12 2 1 -11.3855 -22.9986 11.3627
13 2 3 -11.1179 -23.8181 10.4655
14 2 3 -10.2949 -22.7436 12.2877
24 2 2 -13.5037 -23.0349 11.2504
25 2 2 -12.8368 -22.2555 12.7556
26 2 2 -12.7769 -24.0399 12.5339
21 2 1 -7.8032 -23.6565 13.2797
22 2 3 -7.21861 -24.2097 12.2949
23 2 3 -7.29991 -24.04 14.507
31 2 2 -7.62879 -23.5805 15.4549
20 2 1 -8.0723 -22.2238 13.1028
27 2 2 -9.84717 -20.447 10.8948
16 2 1 -9.27575 -20.5679 11.8041
28 2 2 -8.24248 -18.8492 11.3971
15 2 1 -9.09017 -21.9366 12.1806
17 2 1 -8.07359 -19.8495 11.6959
18 2 1 -7.21021 -20.0092 12.7729
19 2 1 -6.9213 -21.3946 13.0196
29 2 2 -6.29716 -19.4136 12.8138
30 2 2 -6.1535 -21.5052 13.7958
1 1 1 18.6557 7.80043 15.1163
2 1 1 19.3614 8.54638 14.2593
3 1 1 20.7979 8.87446 14.5537
7 1 2 17.6383 7.7075 14.8906
8 1 2 18.8714 9.09915 13.4761
5 1 4 21.6921 8.99527 13.4055
10 1 2 21.4323 8.38361 12.5785
9 1 2 22.7125 9.20927 13.5598
4 1 3 20.9934 9.75276 15.4624
59 4 1 7.65344 21.9194 9.66712
68 4 2 4.58236 16.4542 10.8887
54 4 1 5.44529 18.12 9.91801
53 4 1 4.29303 17.4488 10.6215
56 4 3 6.50931 18.6912 10.6461
57 4 1 7.37183 19.6278 10.2064
58 4 1 6.80157 20.9138 9.96666
60 4 1 8.80541 22.0439 10.3594
62 4 1 8.54876 19.66 11.0013
66 4 2 3.43509 17.3982 9.86921
67 4 2 4.00033 18.0875 11.4794
63 4 1 9.25409 18.3812 11.4406
61 4 1 9.3759 20.816 10.699
64 4 3 9.51613 17.5533 10.4875
65 4 3 10.1316 18.4732 12.4991
72 4 2 10.1402 20.9882 11.3433
73 4 2 9.81486 18.9608 13.3574
71 4 2 9.47527 22.7957 10.0096
6 1 2 19.0396 7.34207 15.962
ITEM: TIMESTEP
2200
ITEM: NUMBER OF ATOMS
115
ITEM: BOX BOUNDS pp pp pp
-2.8628399999999999e+01 2.8628399999999999e+01
-2.8628399999999999e+01 2.8628399999999999e+01
-2.8628399999999999e+01 2.8628399999999999e+01
ITEM: ATOMS id mol type x y z
74 5 1 13.0149 -12.641 -12.272
75 5 1 13.9423 -11.5871 -12.7354
76 5 3 14.3567 -11.6103 -13.9546
77 5 3 14.8279 -11.0048 -11.8169
78 5 1 15.3993 -9.75493 -11.8668
87 5 2 12.2505 -12.8273 -13.0299
88 5 2 12.64 -12.4058 -11.2792
89 5 2 13.6612 -13.5217 -12.2374
83 5 1 16.7491 -9.65644 -11.2949
84 5 1 17.7442 -10.8386 -11.4389
85 5 3 17.4045 -12.0584 -11.386
86 5 3 19.0982 -10.6949 -11.0931
94 5 2 19.4282 -10.8676 -10.1406
79 5 1 14.6133 -8.56405 -11.8455
80 5 1 15.2938 -7.30091 -11.8369
90 5 2 13.6292 -8.62853 -12.3918
91 5 2 14.7302 -6.44158 -11.6237
81 5 1 16.4148 -7.29273 -11.1121
82 5 1 17.2708 -8.37724 -11.2674
92 5 2 16.8108 -6.33934 -10.9464
93 5 2 18.1582 -8.30351 -10.6588
97 6 3 17.2408 17.2727 -9.74296
110 6 2 15.5095 16.1226 -7.85072
95 6 1 15.2648 17.0654 -8.52551
108 6 2 14.7564 16.7982 -9.44784
109 6 2 14.5945 17.7314 -7.92025
96 6 1 16.4878 17.8276 -8.92455
98 6 3 17.2557 18.3928 -7.82687
99 6 1 18.179 19.539 -7.85333
100 6 1 17.6284 20.7819 -8.29925
101 6 1 18.5391 21.844 -8.43873
102 6 1 19.6866 21.7991 -7.56958
103 6 1 20.1799 20.5512 -7.12624
104 6 1 19.3127 19.5145 -6.90285
105 6 1 19.9207 18.1391 -6.48181
106 6 3 19.2056 17.0568 -6.3531
107 6 3 21.0976 18.1573 -5.75685
111 6 2 16.7725 20.732 -9.02642
114 6 2 20.9198 20.6089 -6.34487
115 6 2 21.4809 17.3716 -5.3409
112 6 2 18.1448 22.8368 -8.6172
113 6 2 20.4646 22.5529 -7.75828
32 3 1 15.0864 -6.0473 6.83775
45 3 2 14.1532 -6.00024 6.15305
46 3 2 14.8456 -5.55917 7.7809
47 3 2 15.3189 -7.07923 7.12371
33 3 1 16.2017 -5.37164 6.16548
34 3 3 16.4313 -5.53141 4.91097
35 3 3 17.3938 -5.04989 6.93902
36 3 1 18.2943 -4.00738 6.60057
41 3 1 19.714 -4.10782 7.08175
42 3 1 20.483 -5.36915 6.9659
43 3 3 20.2075 -6.27899 6.09413
44 3 3 21.7421 -5.44238 7.52795
52 3 2 21.943 -4.92777 8.37068
37 3 1 17.7784 -2.67286 6.42961
38 3 1 18.68 -1.56016 6.41199
39 3 1 19.8828 -1.68725 7.077
40 3 1 20.5255 -2.92203 6.89354
48 3 2 16.8305 -2.63262 5.8312
49 3 2 18.1998 -0.59205 6.36398
50 3 2 20.4571 -0.792472 6.97778
51 3 2 21.6085 -2.93345 7.22636
55 4 3 5.69249 17.6493 8.75398
69 4 2 5.9936 20.8042 9.09038
70 4 2 7.16132 22.955 9.42899
11 2 1 -12.7369 -23.1438 12.0796
12 2 1 -11.3339 -23.0589 11.445
13 2 3 -11.1026 -23.8582 10.4943
14 2 3 -10.3082 -22.7267 12.3547
24 2 2 -13.5191 -23.1833 11.263
25 2 2 -13.0172 -22.3161 12.6946
26 2 2 -12.8318 -24.0455 12.6771
21 2 1 -7.73919 -23.6422 13.2661
22 2 3 -7.18811 -24.2341 12.276
23 2 3 -7.2694 -24.0688 14.4044
31 2 2 -7.58053 -23.9077 15.3219
20 2 1 -8.1312 -22.1925 13.1487
27 2 2 -10.1658 -20.2127 11.2102
16 2 1 -9.30863 -20.5774 11.8132
28 2 2 -8.20146 -18.7294 11.5023
15 2 1 -9.17031 -21.9393 12.1564
17 2 1 -8.11193 -19.7701 11.7329
18 2 1 -7.13569 -19.9409 12.6729
19 2 1 -6.9705 -21.2978 13.1349
29 2 2 -6.23691 -19.4647 12.6044
30 2 2 -6.17276 -21.4375 13.8185
1 1 1 18.63 7.86124 15.0629
2 1 1 19.3991 8.56307 14.3275
3 1 1 20.8157 8.9392 14.5707
7 1 2 17.5638 7.89881 14.7765
8 1 2 18.9213 9.0728 13.4772
5 1 4 21.7037 9.02589 13.3742
10 1 2 21.3917 8.51244 12.5459
9 1 2 22.765 9.15019 13.511
4 1 3 21.0195 9.77041 15.487
59 4 1 7.62823 21.9922 9.63068
68 4 2 4.41989 16.4912 11.0156
54 4 1 5.44939 18.0786 9.93324
53 4 1 4.27002 17.5344 10.661
56 4 3 6.44254 18.5762 10.7101
57 4 1 7.34641 19.5985 10.2517
58 4 1 6.77362 20.88 9.77666
60 4 1 8.81 22.0321 10.4272
62 4 1 8.57762 19.6941 10.9495
66 4 2 3.3829 17.5224 9.98945
67 4 2 4.01375 18.2405 11.4668
63 4 1 9.21482 18.3995 11.4035
61 4 1 9.39559 20.8327 10.7318
64 4 3 9.46527 17.5089 10.5127
65 4 3 10.1894 18.5626 12.4688
72 4 2 10.4062 20.9356 11.0427
73 4 2 9.95362 19.1173 13.2613
71 4 2 9.48255 22.9947 10.3862
6 1 2 18.9429 7.3979 15.9638
ITEM: TIMESTEP
2220
ITEM: NUMBER OF ATOMS
115
ITEM: BOX BOUNDS pp pp pp
-2.8628399999999999e+01 2.8628399999999999e+01
-2.8628399999999999e+01 2.8628399999999999e+01
-2.8628399999999999e+01 2.8628399999999999e+01
ITEM: ATOMS id mol type x y z
74 5 1 13.0779 -12.6317 -12.2596
75 5 1 13.9222 -11.5342 -12.7841
76 5 3 14.406 -11.6396 -13.9617
77 5 3 14.8416 -11.0475 -11.8713
78 5 1 15.4719 -9.81108 -11.8521
87 5 2 12.1425 -12.6727 -12.8167
88 5 2 12.9075 -12.5902 -11.1199
89 5 2 13.6279 -13.6445 -12.3672
83 5 1 16.8116 -9.72432 -11.3252
84 5 1 17.7868 -10.8819 -11.4394
85 5 3 17.4033 -12.0745 -11.5193
86 5 3 19.0837 -10.7311 -11.0787
94 5 2 19.4429 -10.8567 -10.1503
79 5 1 14.6212 -8.63761 -11.7908
80 5 1 15.1861 -7.40746 -11.7326
90 5 2 13.6135 -8.67768 -12.198
91 5 2 14.5352 -6.55136 -11.8691
81 5 1 16.3991 -7.28597 -11.0771
82 5 1 17.3452 -8.34844 -11.155
92 5 2 16.8181 -6.28838 -10.9197
93 5 2 18.1268 -8.24096 -10.3641
97 6 3 17.199 17.2593 -9.81772
110 6 2 15.4159 16.0973 -7.91491
95 6 1 15.1894 17.0928 -8.54322
108 6 2 14.6086 16.7977 -9.37256
109 6 2 14.5637 17.6736 -7.90206
96 6 1 16.5205 17.7891 -8.87461
98 6 3 17.2215 18.4878 -7.77282
99 6 1 18.214 19.4504 -7.9441
100 6 1 17.7371 20.7443 -8.25506
101 6 1 18.6486 21.8057 -8.44037
102 6 1 19.7446 21.8147 -7.58804
103 6 1 20.2442 20.5584 -7.08817
104 6 1 19.2942 19.4138 -6.96291
105 6 1 19.9169 18.1643 -6.45052
106 6 3 19.2417 17.1025 -6.33961
107 6 3 21.1149 18.1598 -5.75439
111 6 2 17.0126 20.7657 -9.03985
114 6 2 21.0683 20.6377 -6.45489
115 6 2 21.7705 17.4081 -5.87671
112 6 2 18.3253 22.7631 -8.76734
113 6 2 20.4422 22.5708 -7.74391
32 3 1 15.0828 -6.11075 6.84614
45 3 2 14.1429 -6.01018 6.35754
46 3 2 14.914 -5.76599 7.93727
47 3 2 15.3959 -7.22844 6.87069
33 3 1 16.2115 -5.32585 6.17781
34 3 3 16.3826 -5.55832 4.97684
35 3 3 17.3689 -5.03443 6.90924
36 3 1 18.292 -4.01771 6.63429
41 3 1 19.6665 -4.12061 7.08073
42 3 1 20.4334 -5.41846 6.97178
43 3 3 20.1212 -6.26229 6.09283
44 3 3 21.7216 -5.54947 7.56263
52 3 2 21.9009 -5.07144 8.38863
37 3 1 17.7862 -2.70277 6.52579
38 3 1 18.6552 -1.6107 6.44375
39 3 1 19.9166 -1.70762 7.0816
40 3 1 20.4463 -2.95724 6.87246
48 3 2 16.947 -2.64151 5.83609
49 3 2 18.1417 -0.702764 6.42403
50 3 2 20.5263 -0.7997 7.02979
51 3 2 21.4713 -2.98817 7.21437
55 4 3 5.71709 17.6404 8.7981
69 4 2 5.95385 20.8162 9.21235
70 4 2 7.09718 22.8995 9.29117
11 2 1 -12.7349 -23.1852 11.9603
12 2 1 -11.3273 -23.0548 11.4652
13 2 3 -11.0775 -23.8195 10.5109
14 2 3 -10.2778 -22.6848 12.3567
24 2 2 -13.409 -23.1981 11.1523
25 2 2 -12.9237 -22.3177 12.5742
26 2 2 -12.8055 -24.0951 12.5802
21 2 1 -7.7841 -23.6597 13.2374
22 2 3 -7.24041 -24.2399 12.2155
23 2 3 -7.26998 -24.1394 14.4703
31 2 2 -7.50306 -23.6692 15.2806
20 2 1 -8.04992 -22.1166 13.0281
27 2 2 -10.0158 -20.2078 11.113
16 2 1 -9.25013 -20.5047 11.8726
28 2 2 -8.32436 -18.5764 11.5077
15 2 1 -9.07897 -21.8825 12.1089
17 2 1 -8.16344 -19.6396 11.8138
18 2 1 -7.11683 -19.869 12.6447
19 2 1 -6.97883 -21.1987 13.1279
29 2 2 -6.1536 -19.3614 12.5632
30 2 2 -6.21395 -21.3614 13.9149
1 1 1 18.6443 7.833 14.9937
2 1 1 19.3279 8.60877 14.1977
3 1 1 20.8036 8.97114 14.4642
7 1 2 17.5865 7.68628 14.8553
8 1 2 18.8001 9.01025 13.3983
5 1 4 21.7115 8.96438 13.3445
10 1 2 21.4329 8.46432 12.5143
9 1 2 22.6907 9.20721 13.4653
4 1 3 21.0439 9.75405 15.4224
59 4 1 7.59388 22.0392 9.66281
68 4 2 4.37615 16.4956 10.8053
54 4 1 5.432 18.1624 9.91126
53 4 1 4.22007 17.6174 10.6407
56 4 3 6.47834 18.5947 10.7741
57 4 1 7.37226 19.638 10.4349
58 4 1 6.86085 20.878 9.77273
60 4 1 8.75057 22.1357 10.5034
62 4 1 8.60707 19.7033 11.0192
66 4 2 3.30688 17.7135 10.0917
67 4 2 4.02048 18.1593 11.6215
63 4 1 9.21116 18.4374 11.4599
61 4 1 9.40627 20.8263 10.6073
64 4 3 9.35734 17.6062 10.5677
65 4 3 10.1505 18.5976 12.3642
72 4 2 10.338 21.0096 11.2557
73 4 2 9.99532 19.1324 13.1892
71 4 2 9.34938 23.013 10.2705
6 1 2 19.1794 7.34165 15.7999
ITEM: TIMESTEP
2240
ITEM: NUMBER OF ATOMS
115
ITEM: BOX BOUNDS pp pp pp
-2.8628399999999999e+01 2.8628399999999999e+01
-2.8628399999999999e+01 2.8628399999999999e+01
-2.8628399999999999e+01 2.8628399999999999e+01
ITEM: ATOMS id mol type x y z
74 5 1 13.098 -12.6154 -12.3005
75 5 1 13.9532 -11.4893 -12.7738
76 5 3 14.3055 -11.721 -13.9648
77 5 3 14.9401 -11.0677 -11.8741
78 5 1 15.5827 -9.79714 -11.9386
87 5 2 12.1599 -12.6689 -13.0191
88 5 2 12.7028 -12.4611 -11.2719
89 5 2 13.6102 -13.5617 -12.2102
83 5 1 16.8036 -9.70695 -11.2408
84 5 1 17.7799 -10.893 -11.4506
85 5 3 17.4562 -12.102 -11.6105
86 5 3 19.1296 -10.7592 -11.118
94 5 2 19.4307 -10.8898 -10.2185
79 5 1 14.5976 -8.81813 -11.753
80 5 1 15.1554 -7.53458 -11.8445
90 5 2 13.66 -8.93366 -12.2738
91 5 2 14.4227 -6.67787 -11.6532
81 5 1 16.4627 -7.32288 -11.1553
82 5 1 17.3696 -8.41863 -11.0998
92 5 2 16.8941 -6.33839 -11.201
93 5 2 18.3368 -8.26907 -10.655
97 6 3 17.142 17.2557 -9.75864
110 6 2 15.3703 16.334 -7.84793
95 6 1 15.253 17.0869 -8.54769
108 6 2 14.7816 16.6562 -9.51499
109 6 2 14.4976 17.8151 -8.15528
96 6 1 16.5526 17.7974 -8.81785
98 6 3 17.2306 18.4723 -7.79602
99 6 1 18.2418 19.4502 -7.88274
100 6 1 17.8241 20.6916 -8.23038
101 6 1 18.7681 21.7197 -8.44492
102 6 1 19.8625 21.8065 -7.51209
103 6 1 20.3023 20.5881 -7.0078
104 6 1 19.3558 19.4401 -6.94933
105 6 1 19.9612 18.1657 -6.48027
106 6 3 19.2289 17.1051 -6.29991
107 6 3 21.1365 18.2177 -5.78626
111 6 2 16.9996 20.8747 -8.88589
114 6 2 21.0039 20.6905 -6.15716
115 6 2 21.9068 17.5775 -5.97223
112 6 2 18.3668 22.7342 -8.59345
113 6 2 20.4931 22.6402 -7.57393
32 3 1 15.1668 -6.14983 6.83634
45 3 2 14.2023 -6.01591 6.32269
46 3 2 14.956 -5.94934 7.86072
47 3 2 15.5949 -7.10032 6.76539
33 3 1 16.1765 -5.19434 6.16318
34 3 3 16.3629 -5.47653 4.9566
35 3 3 17.3336 -5.01685 6.91853
36 3 1 18.3112 -4.0125 6.59029
41 3 1 19.6242 -4.19334 7.17561
42 3 1 20.4237 -5.49547 6.96734
43 3 3 20.1602 -6.30003 6.01671
44 3 3 21.6987 -5.66229 7.4999
52 3 2 22.0387 -5.34618 8.45897
37 3 1 17.7991 -2.68653 6.63113
38 3 1 18.6424 -1.6036 6.38175
39 3 1 19.9208 -1.76714 7.00386
40 3 1 20.4253 -3.02605 7.06179
48 3 2 16.774 -2.60095 6.35214
49 3 2 18.0967 -0.653077 6.37941
50 3 2 20.5782 -0.968949 6.7948
51 3 2 21.4703 -2.95637 7.34012
55 4 3 5.75025 17.6608 8.82465
69 4 2 5.90544 20.8374 9.18638
70 4 2 7.04368 22.9571 9.45665
11 2 1 -12.6884 -23.2369 11.8925
12 2 1 -11.2989 -22.9776 11.4027
13 2 3 -11.0026 -23.7374 10.4578
14 2 3 -10.2617 -22.5848 12.2921
24 2 2 -13.3363 -23.4661 10.9905
25 2 2 -13.1139 -22.3337 12.5237
26 2 2 -12.7258 -24.2002 12.5485
21 2 1 -7.63614 -23.642 13.2082
22 2 3 -7.25721 -24.3016 12.2707
23 2 3 -7.35619 -24.1261 14.4191
31 2 2 -7.12462 -23.4584 15.1685
20 2 1 -8.02815 -22.2383 12.99
27 2 2 -9.99599 -20.153 11.0493
16 2 1 -9.28221 -20.4433 11.7644
28 2 2 -8.46963 -18.5866 11.671
15 2 1 -9.11912 -21.8488 12.0983
17 2 1 -8.1101 -19.6229 11.7224
18 2 1 -7.14465 -19.9323 12.7624
19 2 1 -6.97539 -21.3044 13.1197
29 2 2 -6.21399 -19.3201 12.9353
30 2 2 -6.26319 -21.4568 13.9493
1 1 1 18.6306 7.76971 14.879
2 1 1 19.3479 8.5889 14.0941
3 1 1 20.7472 9.00925 14.3265
7 1 2 17.5502 7.60423 14.6034
8 1 2 18.8027 9.09461 13.3407
5 1 4 21.6942 8.95452 13.3405
10 1 2 21.5684 8.4222 12.4123
9 1 2 22.747 9.16333 13.6601
4 1 3 20.9981 9.67423 15.3264
59 4 1 7.55926 21.9989 9.64308
68 4 2 4.19119 16.5303 10.6192
54 4 1 5.41746 18.1845 9.91217
53 4 1 4.19468 17.7001 10.5784
56 4 3 6.46473 18.643 10.72
57 4 1 7.34406 19.6606 10.2997
58 4 1 6.70274 20.9155 9.91697
60 4 1 8.72758 22.1002 10.37
62 4 1 8.51107 19.801 11.131
66 4 2 3.28604 17.9476 9.91653
67 4 2 4.07829 18.1549 11.6139
63 4 1 9.23377 18.4249 11.4452
61 4 1 9.38283 20.8946 10.731
64 4 3 9.34415 17.5101 10.5232
65 4 3 10.1645 18.4361 12.4521
72 4 2 10.3231 20.9409 11.0692
73 4 2 10.0043 18.9709 13.2517
71 4 2 9.30974 23.0064 10.2586
6 1 2 19.0533 7.25407 15.7075
ITEM: TIMESTEP
2260
ITEM: NUMBER OF ATOMS
115
ITEM: BOX BOUNDS pp pp pp
-2.8628399999999999e+01 2.8628399999999999e+01
-2.8628399999999999e+01 2.8628399999999999e+01
-2.8628399999999999e+01 2.8628399999999999e+01
ITEM: ATOMS id mol type x y z
74 5 1 12.9481 -12.569 -12.3347
75 5 1 13.9349 -11.5643 -12.8027
76 5 3 14.2552 -11.7027 -14.0134
77 5 3 14.9475 -11.1488 -11.9281
78 5 1 15.6006 -9.89672 -11.9412
87 5 2 12.1519 -12.768 -13.0809
88 5 2 12.4292 -12.0775 -11.503
89 5 2 13.333 -13.5329 -11.9563
83 5 1 16.8706 -9.82513 -11.2104
84 5 1 17.8295 -10.9154 -11.5548
85 5 3 17.5525 -12.1591 -11.653
86 5 3 19.1346 -10.8127 -11.2091
94 5 2 19.3869 -10.786 -10.1978
79 5 1 14.7425 -8.78991 -11.8252
80 5 1 15.2854 -7.51646 -11.7193
90 5 2 13.7996 -8.79315 -12.3179
91 5 2 14.6184 -6.6604 -11.6143
81 5 1 16.4512 -7.30401 -11.1404
82 5 1 17.3586 -8.44143 -11.0782
92 5 2 16.8394 -6.2887 -11.2063
93 5 2 18.2122 -8.25317 -10.4349
97 6 3 17.2089 17.2653 -9.709
110 6 2 15.4646 16.3657 -7.79554
95 6 1 15.2601 17.1574 -8.50181
108 6 2 14.6366 16.7757 -9.43923
109 6 2 14.5534 17.8518 -7.91099
96 6 1 16.5198 17.901 -8.8726
98 6 3 17.3126 18.4571 -7.73873
99 6 1 18.3236 19.4884 -7.77442
100 6 1 17.828 20.7008 -8.23218
101 6 1 18.7175 21.7722 -8.40004
102 6 1 19.8078 21.7956 -7.40759
103 6 1 20.2906 20.5834 -6.88556
104 6 1 19.3723 19.4702 -6.79022
105 6 1 19.9667 18.1724 -6.53541
106 6 3 19.299 17.1439 -6.22719
107 6 3 21.114 18.2041 -5.81623
111 6 2 17.0432 20.6939 -8.92951
114 6 2 21.0445 20.6971 -6.06953
115 6 2 21.7217 17.4514 -5.84846
112 6 2 18.4886 22.7429 -8.85446
113 6 2 20.6421 22.5677 -7.63823
32 3 1 15.2038 -6.09223 6.82256
45 3 2 14.1443 -6.05229 6.3619
46 3 2 15.0251 -5.7323 7.82795
47 3 2 15.5787 -7.11969 6.80126
33 3 1 16.1726 -5.15935 6.19199
34 3 3 16.2558 -5.34882 4.97965
35 3 3 17.3771 -5.04799 6.84069
36 3 1 18.2895 -4.05298 6.58305
41 3 1 19.5694 -4.27519 7.1379
42 3 1 20.404 -5.60843 6.99985
43 3 3 20.1922 -6.29553 5.97395
44 3 3 21.7207 -5.74842 7.4955
52 3 2 22.0546 -5.53174 8.41718
37 3 1 17.7977 -2.6859 6.6348
38 3 1 18.6816 -1.63073 6.383
39 3 1 19.9328 -1.79514 6.92899
40 3 1 20.461 -3.13573 6.99371
48 3 2 16.7723 -2.59529 6.35297
49 3 2 18.253 -0.625492 6.21438
50 3 2 20.5697 -0.932016 6.69022
51 3 2 21.3483 -3.09296 7.59152
55 4 3 5.71168 17.7292 8.78047
69 4 2 5.71534 20.9166 9.54776
70 4 2 7.11488 23.0799 9.28831
11 2 1 -12.5967 -23.2659 11.927
12 2 1 -11.2617 -22.908 11.2953
13 2 3 -10.9233 -23.7433 10.4476
14 2 3 -10.2908 -22.6012 12.2981
24 2 2 -13.3924 -23.5054 11.1201
25 2 2 -12.9102 -22.4966 12.6147
26 2 2 -12.4884 -24.1619 12.4061
21 2 1 -7.64653 -23.6553 13.1353
22 2 3 -7.22102 -24.3689 12.1528
23 2 3 -7.39043 -24.1205 14.4605
31 2 2 -6.77303 -23.6471 15.1755
20 2 1 -8.03918 -22.2041 13.0458
27 2 2 -10.0157 -20.1692 10.9935
16 2 1 -9.28066 -20.4237 11.7844
28 2 2 -8.15584 -18.7273 11.2515
15 2 1 -9.15762 -21.8189 12.141
17 2 1 -8.08239 -19.7083 11.7296
18 2 1 -7.26701 -19.8824 12.8234
19 2 1 -6.94655 -21.2625 13.1058
29 2 2 -6.41797 -19.2966 12.897
30 2 2 -6.24032 -21.4145 13.8481
1 1 1 18.6472 7.65192 14.7647
2 1 1 19.3166 8.51271 14.0196
3 1 1 20.7253 8.84792 14.4234
7 1 2 17.6917 7.33156 14.4201
8 1 2 18.8001 8.97174 13.2313
5 1 4 21.6337 8.91071 13.3071
10 1 2 21.5253 8.20291 12.5032
9 1 2 22.6065 9.21359 13.5538
4 1 3 20.9312 9.65804 15.3306
59 4 1 7.5045 22.0767 9.67035
68 4 2 3.93556 16.5756 10.5483
54 4 1 5.40132 18.1177 9.92427
53 4 1 4.09114 17.6851 10.5111
56 4 3 6.43405 18.6716 10.6965
57 4 1 7.3133 19.7144 10.3017
58 4 1 6.70815 20.9466 9.97339
60 4 1 8.74389 22.0858 10.3335
62 4 1 8.53107 19.7673 11.0652
66 4 2 3.22455 18.0885 9.93345
67 4 2 4.02929 18.1281 11.5003
63 4 1 9.27304 18.4325 11.4069
61 4 1 9.34941 20.8671 10.7434
64 4 3 9.36641 17.5406 10.5382
65 4 3 10.112 18.2804 12.5076
72 4 2 10.1635 20.9785 11.3542
73 4 2 10.0573 18.8165 13.4116
71 4 2 9.35839 22.9099 10.037
6 1 2 19.0394 7.24725 15.6456
ITEM: TIMESTEP
2280
ITEM: NUMBER OF ATOMS
115
ITEM: BOX BOUNDS pp pp pp
-2.8628399999999999e+01 2.8628399999999999e+01
-2.8628399999999999e+01 2.8628399999999999e+01
-2.8628399999999999e+01 2.8628399999999999e+01
ITEM: ATOMS id mol type x y z
74 5 1 12.8543 -12.5235 -12.3112
75 5 1 13.8872 -11.5809 -12.7972
76 5 3 14.2464 -11.7291 -13.9937
77 5 3 14.9508 -11.1665 -11.9254
78 5 1 15.5521 -9.89173 -11.8731
87 5 2 12.0071 -12.48 -12.9706
88 5 2 12.4727 -12.2744 -11.3153
89 5 2 13.3412 -13.5285 -12.2755
83 5 1 16.8716 -9.83163 -11.1882
84 5 1 17.8393 -10.9017 -11.5705
85 5 3 17.4886 -12.1396 -11.5387
86 5 3 19.1843 -10.7358 -11.2262
94 5 2 19.4765 -10.7543 -10.2407
79 5 1 14.724 -8.74985 -11.8024
80 5 1 15.2493 -7.45336 -11.7436
90 5 2 13.7314 -8.89167 -12.228
91 5 2 14.5989 -6.6538 -11.5491
81 5 1 16.502 -7.34621 -11.0713
82 5 1 17.4091 -8.49946 -11.128
92 5 2 17.0572 -6.44945 -11.0672
93 5 2 18.2999 -8.36035 -10.5917
97 6 3 17.31 17.3789 -9.68271
110 6 2 15.4315 16.2993 -7.88792
95 6 1 15.2849 17.211 -8.42278
108 6 2 14.7836 17.0353 -9.29807
109 6 2 14.6577 17.8274 -7.74444
96 6 1 16.6205 17.8583 -8.77737
98 6 3 17.3059 18.453 -7.7568
99 6 1 18.3101 19.4754 -7.84053
100 6 1 17.8494 20.7185 -8.20727
101 6 1 18.7719 21.7597 -8.27451
102 6 1 19.8289 21.8319 -7.42721
103 6 1 20.2097 20.6022 -6.84382
104 6 1 19.2508 19.4572 -6.7444
105 6 1 19.9406 18.1389 -6.51928
106 6 3 19.2323 17.1326 -6.26033
107 6 3 21.2088 18.0528 -5.89693
111 6 2 17.1051 20.8004 -8.99575
114 6 2 20.9774 20.5816 -6.14673
115 6 2 21.558 17.081 -5.6983
112 6 2 18.375 22.7438 -8.44133
113 6 2 20.6135 22.4951 -7.60488
32 3 1 15.1416 -6.07113 6.88512
45 3 2 14.1593 -5.83698 6.46833
46 3 2 15.1279 -5.79571 7.96093
47 3 2 15.361 -7.09957 6.73819
33 3 1 16.1704 -5.27504 6.14461
34 3 3 16.1965 -5.32519 4.864
35 3 3 17.421 -5.09421 6.80414
36 3 1 18.3094 -4.01305 6.59023
41 3 1 19.7139 -4.22033 7.05291
42 3 1 20.3718 -5.60743 7.05314
43 3 3 20.2527 -6.21582 5.97252
44 3 3 21.6354 -5.72836 7.55967
52 3 2 21.938 -5.25328 8.35534
37 3 1 17.6653 -2.68818 6.5761
38 3 1 18.6185 -1.66802 6.33047
39 3 1 19.8665 -1.83098 6.94688
40 3 1 20.4939 -3.13353 6.91304
48 3 2 16.6305 -2.63111 6.19664
49 3 2 18.2006 -0.635832 6.40062
50 3 2 20.4917 -1.01835 6.7039
51 3 2 21.5067 -3.11915 7.33326
55 4 3 5.63955 17.7249 8.71412
69 4 2 5.78779 20.9346 9.44813
70 4 2 7.02115 22.9696 9.56042
11 2 1 -12.5046 -23.299 11.9374
12 2 1 -11.2759 -22.8837 11.3048
13 2 3 -10.9405 -23.623 10.3705
14 2 3 -10.308 -22.5938 12.2427
24 2 2 -13.3301 -23.3782 11.2537
25 2 2 -12.7617 -22.5401 12.7359
26 2 2 -12.3746 -24.3052 12.4934
21 2 1 -7.68008 -23.6679 13.1264
22 2 3 -7.14508 -24.1946 12.1356
23 2 3 -7.39757 -24.125 14.4201
31 2 2 -6.47109 -24.1688 14.7138
20 2 1 -8.02055 -22.2026 12.9714
27 2 2 -10.0458 -20.2709 10.9623
16 2 1 -9.33283 -20.5109 11.7133
28 2 2 -8.28877 -18.7375 11.2015
15 2 1 -9.16603 -21.7992 12.1269
17 2 1 -8.18856 -19.7141 11.6487
18 2 1 -7.27031 -19.8896 12.7128
19 2 1 -7.04416 -21.2239 13.0699
29 2 2 -6.40421 -19.3056 12.7928
30 2 2 -6.13361 -21.424 13.6641
1 1 1 18.7152 7.50143 14.7661
2 1 1 19.3775 8.42332 14.1408
3 1 1 20.7662 8.77932 14.4036
7 1 2 17.6765 7.43806 14.7028
8 1 2 18.7818 9.15857 13.5317
5 1 4 21.6467 8.82116 13.2852
10 1 2 21.5706 8.08461 12.6383
9 1 2 22.522 9.1221 13.5287
4 1 3 20.8695 9.57722 15.3125
59 4 1 7.49259 22.0438 9.67362
68 4 2 4.08974 16.696 10.8186
54 4 1 5.37461 18.149 9.89134
53 4 1 4.01281 17.7436 10.4743
56 4 3 6.42171 18.6454 10.7109
57 4 1 7.29607 19.6497 10.2817
58 4 1 6.70204 20.9322 9.9665
60 4 1 8.79686 22.1477 10.323
62 4 1 8.55314 19.7268 11.0316
66 4 2 3.21212 17.8234 9.79837
67 4 2 3.79456 18.3183 11.417
63 4 1 9.2379 18.3809 11.4398
61 4 1 9.38423 20.8782 10.6969
64 4 3 9.37874 17.4988 10.5537
65 4 3 10.0795 18.2136 12.5679
72 4 2 10.4196 20.8543 11.1058
73 4 2 10.0838 18.834 13.3393
71 4 2 9.42364 22.9919 9.94168
6 1 2 19.1252 6.99406 15.5706
ITEM: TIMESTEP
2300
ITEM: NUMBER OF ATOMS
115
ITEM: BOX BOUNDS pp pp pp
-2.8628399999999999e+01 2.8628399999999999e+01
-2.8628399999999999e+01 2.8628399999999999e+01
-2.8628399999999999e+01 2.8628399999999999e+01
ITEM: ATOMS id mol type x y z
74 5 1 12.8097 -12.458 -12.3637
75 5 1 13.9172 -11.532 -12.8954
76 5 3 14.233 -11.7928 -14.0713
77 5 3 14.8731 -11.177 -11.9366
78 5 1 15.4867 -9.87275 -11.9335
87 5 2 11.8688 -12.5754 -13.0328
88 5 2 12.4396 -11.9961 -11.381
89 5 2 13.2875 -13.4326 -12.1159
83 5 1 16.8159 -9.78829 -11.2657
84 5 1 17.8404 -10.8441 -11.5936
85 5 3 17.4536 -12.0254 -11.47
86 5 3 19.155 -10.6977 -11.1738
94 5 2 19.4776 -10.8 -10.2519
79 5 1 14.6056 -8.76072 -11.7518
80 5 1 15.2377 -7.54025 -11.7154
90 5 2 13.7933 -8.77809 -12.5048
91 5 2 14.5939 -6.59962 -11.7653
81 5 1 16.541 -7.46424 -11.0953
82 5 1 17.3798 -8.50701 -11.2715
92 5 2 17.0874 -6.5438 -11.0884
93 5 2 18.2197 -8.31798 -10.6501
97 6 3 17.2603 17.4174 -9.6727
110 6 2 15.5789 16.3285 -7.77063
95 6 1 15.2701 17.2305 -8.41842
108 6 2 14.7171 16.8191 -9.34063
109 6 2 14.589 17.8363 -7.79111
96 6 1 16.5388 17.9539 -8.81319
98 6 3 17.2609 18.5124 -7.73373
99 6 1 18.2891 19.4876 -7.82312
100 6 1 17.7696 20.7558 -8.14874
101 6 1 18.7454 21.8426 -8.22896
102 6 1 19.8048 21.726 -7.35615
103 6 1 20.247 20.4616 -6.80125
104 6 1 19.3439 19.3865 -6.78514
105 6 1 19.9265 18.0345 -6.40253
106 6 3 19.1274 17.052 -6.3296
107 6 3 21.263 17.937 -5.99964
111 6 2 16.9401 20.8471 -8.79839
114 6 2 20.8844 20.5106 -5.9109
115 6 2 21.7968 17.0432 -6.11215
112 6 2 18.3507 22.8085 -8.42622
113 6 2 20.6311 22.466 -7.40282
32 3 1 15.1957 -6.11872 6.79807
45 3 2 14.2173 -5.80668 6.33491
46 3 2 15.1879 -5.86625 7.86428
47 3 2 15.3616 -7.22341 6.66073
33 3 1 16.1816 -5.33178 6.05999
34 3 3 16.1004 -5.36024 4.78339
35 3 3 17.3979 -5.17281 6.70353
36 3 1 18.272 -4.08934 6.5772
41 3 1 19.663 -4.12064 7.07311
42 3 1 20.387 -5.47693 6.91149
43 3 3 20.3432 -6.21733 5.93085
44 3 3 21.6059 -5.70132 7.6007
52 3 2 21.7663 -5.29779 8.55725
37 3 1 17.7142 -2.76701 6.53824
38 3 1 18.5778 -1.68731 6.3986
39 3 1 19.9241 -1.76556 6.84021
40 3 1 20.5273 -3.05362 6.76763
48 3 2 16.76 -2.602 6.18464
49 3 2 18.1092 -0.785644 6.07887
50 3 2 20.5642 -0.892648 6.59189
51 3 2 21.5378 -3.12999 7.22768
55 4 3 5.58809 17.674 8.77805
69 4 2 5.76421 20.798 9.35045
70 4 2 6.91911 22.8705 9.72823
11 2 1 -12.5706 -23.3618 11.9881
12 2 1 -11.2817 -22.9375 11.3851
13 2 3 -10.9327 -23.5671 10.3073
14 2 3 -10.3478 -22.543 12.334
24 2 2 -13.3082 -23.2081 11.2568
25 2 2 -12.8796 -22.8079 12.9049
26 2 2 -12.5135 -24.4924 12.1353
21 2 1 -7.64416 -23.5634 13.117
22 2 3 -7.09358 -24.1181 12.1265
23 2 3 -7.23038 -24.0537 14.3391
31 2 2 -6.29664 -23.9909 14.5447
20 2 1 -8.11306 -22.1085 13.0336
27 2 2 -10.0536 -20.1885 10.9924
16 2 1 -9.31606 -20.4597 11.6567
28 2 2 -8.43382 -18.5863 11.3725
15 2 1 -9.14136 -21.843 12.0716
17 2 1 -8.18195 -19.636 11.5935
18 2 1 -7.26936 -19.764 12.6147
19 2 1 -7.02456 -21.1412 12.9965
29 2 2 -6.43281 -19.0808 12.6675
30 2 2 -6.33854 -21.1705 13.8089
1 1 1 18.7131 7.44518 14.8628
2 1 1 19.384 8.37463 14.1347
3 1 1 20.7691 8.72545 14.4142
7 1 2 17.6883 7.16462 14.6268
8 1 2 18.898 8.92886 13.3782
5 1 4 21.705 8.69188 13.2382
10 1 2 21.6047 7.90009 12.4594
9 1 2 22.714 9.02222 13.4388
4 1 3 20.9372 9.51234 15.3529
59 4 1 7.47983 21.9315 9.7062
68 4 2 4.29986 16.8537 10.9479
54 4 1 5.3111 18.2562 9.83205
53 4 1 4.11337 17.8075 10.446
56 4 3 6.37122 18.5656 10.6813
57 4 1 7.30353 19.5627 10.361
58 4 1 6.72207 20.8421 9.9575
60 4 1 8.73473 22.0061 10.3535
62 4 1 8.61352 19.6413 11.009
66 4 2 3.32938 17.6551 9.63435
67 4 2 3.82095 18.5519 11.3294
63 4 1 9.12323 18.3634 11.4169
61 4 1 9.42951 20.7592 10.61
64 4 3 9.39562 17.5329 10.54
65 4 3 10.0195 18.2135 12.508
72 4 2 10.3148 20.8857 11.2287
73 4 2 9.81474 18.5073 13.4446
71 4 2 9.26248 22.9442 10.1092
6 1 2 19.2846 6.74094 15.4944
ITEM: TIMESTEP
2320
ITEM: NUMBER OF ATOMS
115
ITEM: BOX BOUNDS pp pp pp
-2.8628399999999999e+01 2.8628399999999999e+01
-2.8628399999999999e+01 2.8628399999999999e+01
-2.8628399999999999e+01 2.8628399999999999e+01
ITEM: ATOMS id mol type x y z
74 5 1 12.8088 -12.5024 -12.4014
75 5 1 13.9219 -11.5589 -12.9487
76 5 3 14.3327 -11.6891 -14.1133
77 5 3 14.7989 -11.1684 -11.9817
78 5 1 15.4749 -9.93046 -11.9852
87 5 2 11.936 -12.4226 -13.1501
88 5 2 12.4691 -12.1666 -11.4428
89 5 2 13.2304 -13.5652 -12.2567
83 5 1 16.778 -9.86056 -11.3938
84 5 1 17.8561 -10.87 -11.5503
85 5 3 17.495 -12.0455 -11.5386
86 5 3 19.1514 -10.638 -11.2155
94 5 2 19.6433 -10.8158 -10.2939
79 5 1 14.6699 -8.77652 -11.7706
80 5 1 15.2524 -7.52959 -11.6748
90 5 2 13.6577 -8.79435 -12.0656
91 5 2 14.6078 -6.66276 -11.6116
81 5 1 16.5009 -7.40288 -11.1008
82 5 1 17.3685 -8.54217 -11.3145
92 5 2 16.9721 -6.38739 -11.0697
93 5 2 18.3728 -8.45473 -10.8443
97 6 3 17.2131 17.4119 -9.62251
110 6 2 15.5632 16.3444 -7.87431
95 6 1 15.2799 17.2213 -8.37083
108 6 2 14.7415 16.9952 -9.32297
109 6 2 14.6092 17.9115 -7.7745
96 6 1 16.4601 17.9677 -8.788
98 6 3 17.2961 18.4824 -7.6716
99 6 1 18.2484 19.536 -7.76872
100 6 1 17.811 20.8336 -8.08818
101 6 1 18.7949 21.7499 -8.14607
102 6 1 19.8567 21.7098 -7.25591
103 6 1 20.285 20.4474 -6.82172
104 6 1 19.3177 19.3985 -6.8192
105 6 1 19.924 18.0467 -6.4294
106 6 3 19.2386 17.0037 -6.25228
107 6 3 21.2712 17.8994 -6.05307
111 6 2 17.1145 20.9148 -8.92021
114 6 2 21.0894 20.4925 -6.05834
115 6 2 21.8518 17.1743 -6.47632
112 6 2 18.3114 22.6911 -8.5307
113 6 2 20.6787 22.3489 -7.39561
32 3 1 15.1546 -6.19081 6.7428
45 3 2 14.1056 -6.25331 6.28973
46 3 2 15.0797 -5.89583 7.78166
47 3 2 15.6042 -7.22839 6.7375
33 3 1 16.1353 -5.30837 5.9993
34 3 3 16.0489 -5.23407 4.71795
35 3 3 17.3927 -5.20863 6.64238
36 3 1 18.3481 -4.16112 6.51185
41 3 1 19.7317 -4.16714 6.98375
42 3 1 20.5079 -5.45046 6.83616
43 3 3 20.2387 -6.28069 5.98608
44 3 3 21.6309 -5.62312 7.62941
52 3 2 21.6729 -5.41416 8.64737
37 3 1 17.7638 -2.84145 6.67893
38 3 1 18.5751 -1.7316 6.35535
39 3 1 19.9343 -1.7001 6.73186
40 3 1 20.4842 -2.93657 6.70272
48 3 2 16.759 -2.71371 6.28346
49 3 2 17.9941 -0.792579 6.59388
50 3 2 20.4954 -0.922879 6.40502
51 3 2 21.5134 -3.00787 6.99283
55 4 3 5.53977 17.6502 8.74924
69 4 2 5.81103 20.6568 9.45481
70 4 2 7.15358 22.7556 9.33514
11 2 1 -12.5915 -23.4348 11.9173
12 2 1 -11.2907 -22.9706 11.4197
13 2 3 -10.9351 -23.4625 10.2983
14 2 3 -10.2828 -22.6096 12.3197
24 2 2 -13.3932 -23.301 11.0733
25 2 2 -12.9196 -22.8423 12.7412
26 2 2 -12.5872 -24.4493 12.2095
21 2 1 -7.6355 -23.4952 13.043
22 2 3 -7.05871 -24.0776 12.0712
23 2 3 -7.10325 -23.9329 14.2915
31 2 2 -6.226 -23.5174 14.6978
20 2 1 -8.10744 -22.0891 12.9277
27 2 2 -10.0773 -20.378 10.7701
16 2 1 -9.42635 -20.5049 11.6811
28 2 2 -8.32403 -18.7038 11.1137
15 2 1 -9.16658 -21.8396 12.0825
17 2 1 -8.28597 -19.643 11.5806
18 2 1 -7.29376 -19.8476 12.5711
19 2 1 -7.03766 -21.1665 12.9824
29 2 2 -6.42645 -19.1967 12.4493
30 2 2 -6.19626 -21.2604 13.665
1 1 1 18.6986 7.37653 14.9027
2 1 1 19.3086 8.24404 14.1037
3 1 1 20.7318 8.65698 14.3489
7 1 2 17.6479 7.25396 14.6962
8 1 2 18.7575 8.69401 13.3681
5 1 4 21.6704 8.64829 13.3164
10 1 2 21.6592 7.8762 12.6077
9 1 2 22.5139 9.20272 13.47
4 1 3 21.0458 9.42713 15.3144
59 4 1 7.57625 21.8471 9.70316
68 4 2 4.17536 16.752 10.9439
54 4 1 5.30499 18.3055 9.79676
53 4 1 4.07613 17.779 10.5495
56 4 3 6.39083 18.5698 10.6367
57 4 1 7.35297 19.5142 10.3323
58 4 1 6.71845 20.7189 9.99509
60 4 1 8.74506 21.918 10.4266
62 4 1 8.5582 19.6253 11.1131
66 4 2 3.276 17.7402 9.77667
67 4 2 3.76119 18.359 11.3802
63 4 1 9.14883 18.2789 11.4528
61 4 1 9.40569 20.6786 10.6427
64 4 3 9.49144 17.5437 10.4525
65 4 3 9.88836 18.2071 12.5777
72 4 2 10.4613 20.724 11.003
73 4 2 9.73248 18.7971 13.3601
71 4 2 9.3541 22.7632 10.2037
6 1 2 19.2354 6.72204 15.5594
ITEM: TIMESTEP
2340
ITEM: NUMBER OF ATOMS
115
ITEM: BOX BOUNDS pp pp pp
-2.8628399999999999e+01 2.8628399999999999e+01
-2.8628399999999999e+01 2.8628399999999999e+01
-2.8628399999999999e+01 2.8628399999999999e+01
ITEM: ATOMS id mol type x y z
74 5 1 12.9059 -12.5657 -12.5237
75 5 1 13.8251 -11.5321 -12.958
76 5 3 14.3092 -11.6141 -14.1179
77 5 3 14.7943 -11.0865 -11.9742
78 5 1 15.5668 -9.87504 -11.9842
87 5 2 12.1907 -12.5464 -13.3574
88 5 2 12.4183 -12.2968 -11.5583
89 5 2 13.4157 -13.5086 -12.459
83 5 1 16.8074 -9.81346 -11.2902
84 5 1 17.831 -10.9029 -11.636
85 5 3 17.5577 -12.1615 -11.5602
86 5 3 19.1258 -10.643 -11.1853
94 5 2 19.3908 -10.7093 -10.1885
79 5 1 14.6845 -8.83482 -11.755
80 5 1 15.2615 -7.55065 -11.7212
90 5 2 13.7615 -8.8401 -12.2617
91 5 2 14.5777 -6.72113 -11.5437
81 5 1 16.4771 -7.47877 -11.0844
82 5 1 17.4021 -8.49579 -11.3821
92 5 2 16.8437 -6.52407 -11.0011
93 5 2 18.4325 -8.27333 -11.1021
97 6 3 17.1115 17.4184 -9.72926
110 6 2 15.4746 16.1924 -7.96194
95 6 1 15.2538 17.1948 -8.34477
108 6 2 14.5649 17.0985 -9.23382
109 6 2 14.6813 17.8176 -7.61334
96 6 1 16.5594 17.9232 -8.7139
98 6 3 17.2611 18.4478 -7.64122
99 6 1 18.2472 19.4388 -7.66043
100 6 1 17.8345 20.7619 -8.02787
101 6 1 18.8375 21.775 -8.19509
102 6 1 19.8815 21.7843 -7.25879
103 6 1 20.3179 20.4465 -6.86165
104 6 1 19.3827 19.4325 -6.75711
105 6 1 19.939 18.0329 -6.50715
106 6 3 19.1914 17.0758 -6.1531
107 6 3 21.2531 17.9376 -6.11198
111 6 2 16.9154 20.8268 -8.60502
114 6 2 21.1326 20.4643 -6.26279
115 6 2 22.0035 17.5183 -6.59017
112 6 2 18.4298 22.7201 -8.51089
113 6 2 20.6187 22.5265 -7.37011
32 3 1 15.212 -6.20679 6.67355
45 3 2 14.2161 -6.24506 6.16803
46 3 2 15.191 -5.82253 7.67411
47 3 2 15.671 -7.18941 6.59147
33 3 1 16.1508 -5.28328 5.97293
34 3 3 16.0277 -5.24932 4.72416
35 3 3 17.4219 -5.18674 6.5909
36 3 1 18.3222 -4.10786 6.40556
41 3 1 19.7397 -4.19122 6.87033
42 3 1 20.528 -5.49495 6.87102
43 3 3 20.2387 -6.42992 6.09916
44 3 3 21.6556 -5.48473 7.66032
52 3 2 21.6124 -5.16351 8.58659
37 3 1 17.7672 -2.84573 6.65083
38 3 1 18.4772 -1.73285 6.31217
39 3 1 19.8355 -1.79108 6.61142
40 3 1 20.5344 -2.97142 6.60548
48 3 2 16.6426 -2.69493 6.67351
49 3 2 17.861 -0.870462 6.49196
50 3 2 20.3841 -0.898575 6.24632
51 3 2 21.5467 -2.99637 6.98877
55 4 3 5.55679 17.6453 8.77297
69 4 2 5.90492 20.9351 9.46683
70 4 2 7.0994 22.853 9.52514
11 2 1 -12.576 -23.4723 11.8569
12 2 1 -11.2911 -22.8919 11.3682
13 2 3 -10.8891 -23.4012 10.2949
14 2 3 -10.2646 -22.7374 12.3225
24 2 2 -13.4119 -23.5298 11.115
25 2 2 -12.9369 -22.8368 12.7272
26 2 2 -12.4186 -24.4381 12.3292
21 2 1 -7.58297 -23.4781 13.1227
22 2 3 -7.05088 -23.9822 12.0342
23 2 3 -7.07761 -23.7895 14.3582
31 2 2 -6.24176 -23.3362 14.7905
20 2 1 -7.99385 -22.0792 12.9372
27 2 2 -10.2558 -20.2093 11.0829
16 2 1 -9.44714 -20.4977 11.7062
28 2 2 -8.34282 -18.7526 11.0813
15 2 1 -9.16803 -21.8347 12.0762
17 2 1 -8.25306 -19.7558 11.397
18 2 1 -7.29875 -19.8489 12.4442
19 2 1 -6.95001 -21.1278 12.9362
29 2 2 -6.52211 -19.097 12.4935
30 2 2 -6.30901 -21.1624 13.7935
1 1 1 18.6295 7.30863 15.0144
2 1 1 19.3002 8.19797 14.2073
3 1 1 20.7429 8.6471 14.3713
7 1 2 17.5565 7.19016 14.8305
8 1 2 18.7678 8.71421 13.3906
5 1 4 21.6476 8.6512 13.2501
10 1 2 21.769 7.83018 12.6637
9 1 2 22.5651 9.04125 13.4327
4 1 3 21.0537 9.35454 15.3553
59 4 1 7.59544 21.9226 9.64497
68 4 2 4.2611 16.7564 10.9816
54 4 1 5.28045 18.1871 9.84545
53 4 1 4.07855 17.7709 10.563
56 4 3 6.35358 18.5576 10.5889
57 4 1 7.27951 19.5747 10.1967
58 4 1 6.77239 20.887 10.0235
60 4 1 8.79387 21.9755 10.4779
62 4 1 8.46019 19.5925 11.0219
66 4 2 3.13436 17.6913 9.97764
67 4 2 3.83294 18.481 11.4139
63 4 1 9.15471 18.277 11.4405
61 4 1 9.35949 20.7215 10.739
64 4 3 9.60561 17.5214 10.4961
65 4 3 9.84583 18.1664 12.6195
72 4 2 10.1723 20.7629 11.428
73 4 2 9.49571 18.6674 13.479
71 4 2 9.46 22.7467 10.2879
6 1 2 19.0438 6.88233 15.8705
ITEM: TIMESTEP
2360
ITEM: NUMBER OF ATOMS
115
ITEM: BOX BOUNDS pp pp pp
-2.8628399999999999e+01 2.8628399999999999e+01
-2.8628399999999999e+01 2.8628399999999999e+01
-2.8628399999999999e+01 2.8628399999999999e+01
ITEM: ATOMS id mol type x y z
74 5 1 12.9821 -12.7267 -12.6529
75 5 1 13.8316 -11.5345 -12.9286
76 5 3 14.2451 -11.5333 -14.0845
77 5 3 14.8574 -11.155 -11.9556
78 5 1 15.4967 -9.93173 -11.9969
87 5 2 12.1894 -12.8045 -13.4284
88 5 2 12.5545 -12.6603 -11.6355
89 5 2 13.6035 -13.5869 -12.7962
83 5 1 16.8021 -9.74297 -11.4466
84 5 1 17.8102 -10.8775 -11.626
85 5 3 17.4769 -12.1111 -11.6036
86 5 3 19.0457 -10.6744 -11.1201
94 5 2 19.2865 -10.5551 -10.169
79 5 1 14.6746 -8.85228 -11.8455
80 5 1 15.197 -7.55712 -11.7276
90 5 2 13.7287 -8.78948 -12.3068
91 5 2 14.4341 -6.77897 -11.6678
81 5 1 16.4446 -7.40229 -11.0428
82 5 1 17.2928 -8.42008 -11.3938
92 5 2 16.7975 -6.41078 -10.931
93 5 2 18.3054 -8.2483 -10.9949
97 6 3 17.1314 17.3733 -9.74907
110 6 2 15.5054 16.2229 -7.91802
95 6 1 15.214 17.2179 -8.39979
108 6 2 14.5975 16.9894 -9.29175
109 6 2 14.6272 17.8452 -7.72071
96 6 1 16.5119 17.8749 -8.74179
98 6 3 17.2841 18.4359 -7.65863
99 6 1 18.2668 19.4475 -7.68913
100 6 1 17.873 20.7839 -8.05259
101 6 1 18.8882 21.7202 -8.2099
102 6 1 19.7701 21.7302 -7.2423
103 6 1 20.2853 20.4884 -6.85084
104 6 1 19.3989 19.3877 -6.76447
105 6 1 19.9807 18.0168 -6.53821
106 6 3 19.127 17.1944 -6.10907
107 6 3 21.2838 17.8614 -6.1506
111 6 2 17.1187 20.8125 -8.87122
114 6 2 21.093 20.6841 -6.15672
115 6 2 21.9472 17.5924 -6.80193
112 6 2 18.5598 22.657 -8.65684
113 6 2 20.4201 22.5841 -7.11187
32 3 1 15.2118 -6.05636 6.71617
45 3 2 14.2357 -5.92209 6.32533
46 3 2 15.2184 -5.7076 7.84448
47 3 2 15.6071 -7.10145 6.63877
33 3 1 16.1446 -5.1698 5.96938
34 3 3 16.1542 -5.21698 4.70852
35 3 3 17.4737 -5.11269 6.49108
36 3 1 18.3613 -4.06961 6.3626
41 3 1 19.7055 -4.19956 6.80193
42 3 1 20.4336 -5.53768 6.96816
43 3 3 20.3659 -6.46102 6.08246
44 3 3 21.6917 -5.47551 7.60669
52 3 2 21.8382 -5.28117 8.58346
37 3 1 17.7464 -2.87167 6.66102
38 3 1 18.4462 -1.72198 6.30798
39 3 1 19.8217 -1.76199 6.53706
40 3 1 20.504 -3.03587 6.4611
48 3 2 16.7307 -2.7382 6.4635
49 3 2 17.9223 -0.844782 6.3176
50 3 2 20.3421 -0.839627 6.30844
51 3 2 21.4895 -3.02696 6.82495
55 4 3 5.47565 17.6248 8.76271
69 4 2 5.76627 21.1198 9.3698
70 4 2 7.17844 22.8482 9.44625
11 2 1 -12.4218 -23.4585 11.9178
12 2 1 -11.2303 -22.8251 11.354
13 2 3 -10.8595 -23.3822 10.2771
14 2 3 -10.2628 -22.642 12.2825
24 2 2 -13.1568 -23.5674 11.0871
25 2 2 -12.9286 -22.8894 12.7014
26 2 2 -12.1643 -24.5212 12.2316
21 2 1 -7.51429 -23.5018 13.1012
22 2 3 -6.92396 -23.9778 12.0899
23 2 3 -7.05647 -23.7309 14.3553
31 2 2 -6.18182 -23.3875 14.6128
20 2 1 -7.99233 -22.0722 12.9573
27 2 2 -10.1042 -20.5021 10.9033
16 2 1 -9.36436 -20.5782 11.67
28 2 2 -8.4904 -18.7914 10.9863
15 2 1 -9.10488 -21.8072 12.1099
17 2 1 -8.21658 -19.8073 11.3797
18 2 1 -7.30703 -19.7544 12.3959
19 2 1 -7.00383 -21.0721 12.8673
29 2 2 -6.53702 -19.0579 12.3881
30 2 2 -6.31398 -21.0775 13.6554
1 1 1 18.6452 7.34508 15.0237
2 1 1 19.3495 8.1896 14.2277
3 1 1 20.7493 8.63599 14.4245
7 1 2 17.6001 7.22 14.9107
8 1 2 18.8724 8.78679 13.4229
5 1 4 21.6252 8.6177 13.2879
10 1 2 21.2555 8.30709 12.333
9 1 2 22.6222 8.91364 13.3641
4 1 3 21.066 9.24925 15.4821
59 4 1 7.57937 21.8999 9.72889
68 4 2 4.17241 16.6769 11.039
54 4 1 5.25854 18.1556 9.86786
53 4 1 4.04051 17.7029 10.6187
56 4 3 6.33269 18.5604 10.5905
57 4 1 7.21309 19.5753 10.212
58 4 1 6.68167 20.9199 9.9863
60 4 1 8.72304 21.9418 10.5175
62 4 1 8.48845 19.5222 10.9622
66 4 2 3.15659 17.6706 9.9579
67 4 2 3.72658 18.4118 11.4589
63 4 1 9.15669 18.2814 11.2893
61 4 1 9.28827 20.7517 10.8648
64 4 3 9.66881 17.4643 10.4697
65 4 3 9.76769 18.2497 12.6062
72 4 2 10.0301 20.9017 11.5938
73 4 2 9.2181 18.406 13.4174
71 4 2 9.41551 22.8625 10.4286
6 1 2 19.0975 6.9517 15.9643
ITEM: TIMESTEP
2380
ITEM: NUMBER OF ATOMS
115
ITEM: BOX BOUNDS pp pp pp
-2.8628399999999999e+01 2.8628399999999999e+01
-2.8628399999999999e+01 2.8628399999999999e+01
-2.8628399999999999e+01 2.8628399999999999e+01
ITEM: ATOMS id mol type x y z
74 5 1 13.0098 -12.8625 -12.6164
75 5 1 13.9162 -11.689 -12.9686
76 5 3 14.139 -11.4863 -14.1548
77 5 3 14.8189 -11.1946 -12.0151
78 5 1 15.4564 -9.93449 -12.0723
87 5 2 12.03 -12.9097 -13.2608
88 5 2 12.6615 -12.7527 -11.555
89 5 2 13.4463 -13.9418 -12.8283
83 5 1 16.73 -9.78594 -11.3891
84 5 1 17.7908 -10.8498 -11.6836
85 5 3 17.4009 -12.0697 -11.6485
86 5 3 19.076 -10.6541 -11.1258
94 5 2 19.1055 -10.5114 -10.1334
79 5 1 14.5928 -8.80223 -11.9077
80 5 1 15.0517 -7.52102 -11.6511
90 5 2 13.6342 -8.71191 -12.4715
91 5 2 14.3031 -6.75366 -11.3666
81 5 1 16.3503 -7.36418 -11.1227
82 5 1 17.1651 -8.42672 -11.4932
92 5 2 16.7375 -6.28816 -11.2275
93 5 2 18.1491 -8.22953 -11.1099
97 6 3 17.1533 17.3887 -9.63024
110 6 2 15.3439 16.2506 -7.87157
95 6 1 15.2346 17.2387 -8.38233
108 6 2 14.6038 17.0185 -9.32151
109 6 2 14.6814 17.91 -7.67666
96 6 1 16.4813 17.9355 -8.72172
98 6 3 17.2689 18.4007 -7.63656
99 6 1 18.2304 19.4824 -7.76331
100 6 1 17.783 20.7791 -8.16629
101 6 1 18.8856 21.7637 -8.17991
102 6 1 19.7709 21.7262 -7.09565
103 6 1 20.2652 20.4567 -6.82549
104 6 1 19.3174 19.4057 -6.87395
105 6 1 19.9095 18.0412 -6.58695
106 6 3 19.217 17.1114 -6.11439
107 6 3 21.2437 17.8217 -6.19524
111 6 2 17.0314 20.8016 -8.95458
114 6 2 20.9481 20.4663 -6.03485
115 6 2 22.0245 17.7747 -6.89524
112 6 2 18.552 22.7562 -8.4486
113 6 2 20.5136 22.5355 -7.03965
32 3 1 15.1289 -5.91905 6.7279
45 3 2 14.1668 -5.75286 6.18889
46 3 2 15.0014 -5.59536 7.73768
47 3 2 15.3955 -6.96598 6.65994
33 3 1 16.2338 -5.21738 5.96647
34 3 3 16.1588 -5.13794 4.69275
35 3 3 17.4484 -5.13179 6.58845
36 3 1 18.3875 -4.09179 6.35592
41 3 1 19.7821 -4.20276 6.71288
42 3 1 20.4289 -5.54056 6.99676
43 3 3 20.3389 -6.40746 6.10816
44 3 3 21.6594 -5.59881 7.56853
52 3 2 21.9855 -4.94163 8.30897
37 3 1 17.7355 -2.77669 6.59385
38 3 1 18.5179 -1.70905 6.26995
39 3 1 19.8827 -1.76025 6.51636
40 3 1 20.4914 -3.05446 6.42075
48 3 2 16.661 -2.61804 6.43715
49 3 2 18.1225 -0.73626 6.50134
50 3 2 20.5022 -0.956114 6.2636
51 3 2 21.576 -2.94475 6.50971
55 4 3 5.38978 17.6239 8.70054
69 4 2 5.83868 20.9215 9.27115
70 4 2 7.28021 22.8919 9.45007
11 2 1 -12.4627 -23.4007 11.9969
12 2 1 -11.1882 -22.9279 11.3301
13 2 3 -10.8378 -23.4125 10.1977
14 2 3 -10.2571 -22.5725 12.2886
24 2 2 -13.4195 -23.2516 11.4687
25 2 2 -12.5379 -22.7756 12.8706
26 2 2 -12.432 -24.4371 12.2967
21 2 1 -7.52057 -23.3927 13.1443
22 2 3 -6.93377 -23.9851 12.2211
23 2 3 -7.00672 -23.8297 14.4176
31 2 2 -6.20886 -23.422 14.8458
20 2 1 -8.04629 -22.0209 12.9337
27 2 2 -10.1745 -20.3639 10.8723
16 2 1 -9.38827 -20.5255 11.5346
28 2 2 -8.39848 -18.8374 10.8605
15 2 1 -9.12003 -21.8153 12.0345
17 2 1 -8.25971 -19.7426 11.3339
18 2 1 -7.28934 -19.8441 12.3298
19 2 1 -6.87174 -21.116 12.7773
29 2 2 -6.45365 -19.2529 12.1178
30 2 2 -5.88615 -21.1941 13.3392
1 1 1 18.7395 7.40842 15.0917
2 1 1 19.3108 8.1858 14.209
3 1 1 20.7524 8.55323 14.4616
7 1 2 17.7224 6.99562 14.9216
8 1 2 18.845 8.57067 13.3474
5 1 4 21.5251 8.69559 13.2885
10 1 2 21.1369 8.5264 12.3606
9 1 2 22.5682 8.54601 13.3895
4 1 3 21.1122 9.21888 15.4855
59 4 1 7.63727 21.9112 9.69421
68 4 2 4.24463 16.7663 11.1141
54 4 1 5.20865 18.1504 9.84381
53 4 1 4.02901 17.7282 10.6477
56 4 3 6.36331 18.5395 10.6034
57 4 1 7.24479 19.5743 10.269
58 4 1 6.70846 20.7877 9.92886
60 4 1 8.73428 21.9629 10.5901
62 4 1 8.51866 19.5753 10.9553
66 4 2 3.19215 17.5898 10.0085
67 4 2 3.59081 18.4351 11.3605
63 4 1 9.20724 18.3133 11.3189
61 4 1 9.3633 20.7157 10.8819
64 4 3 9.70441 17.4977 10.4692
65 4 3 9.70229 18.2895 12.6025
72 4 2 10.1828 20.7834 11.5913
73 4 2 9.01286 18.675 13.2965
71 4 2 9.36956 22.7664 10.3459
6 1 2 19.3906 7.1163 15.9957
ITEM: TIMESTEP
2400
ITEM: NUMBER OF ATOMS
115
ITEM: BOX BOUNDS pp pp pp
-2.8628399999999999e+01 2.8628399999999999e+01
-2.8628399999999999e+01 2.8628399999999999e+01
-2.8628399999999999e+01 2.8628399999999999e+01
ITEM: ATOMS id mol type x y z
74 5 1 13.0847 -12.899 -12.5525
75 5 1 13.9032 -11.6576 -12.9557
76 5 3 14.1266 -11.3987 -14.1877
77 5 3 14.7839 -11.1267 -11.9645
78 5 1 15.4198 -9.88028 -11.9851
87 5 2 12.1461 -12.9995 -13.0827
88 5 2 12.8608 -13.0179 -11.4813
89 5 2 13.6482 -13.7181 -13.0242
83 5 1 16.7662 -9.77848 -11.4666
84 5 1 17.7943 -10.8236 -11.6078
85 5 3 17.4563 -12.037 -11.5933
86 5 3 19.0442 -10.6649 -11.0481
94 5 2 19.1802 -10.9066 -10.149
79 5 1 14.5098 -8.78303 -11.9812
80 5 1 15.0224 -7.55661 -11.6861
90 5 2 13.5907 -8.77304 -12.5408
91 5 2 14.4306 -6.84638 -11.1367
81 5 1 16.3552 -7.47775 -11.214
82 5 1 17.2821 -8.48078 -11.5954
92 5 2 16.6578 -6.50092 -10.936
93 5 2 18.3471 -8.29815 -11.6037
97 6 3 17.1276 17.3426 -9.6318
110 6 2 15.432 16.1998 -7.88564
95 6 1 15.2375 17.1802 -8.38142
108 6 2 14.6836 16.9742 -9.32975
109 6 2 14.526 17.756 -7.67379
96 6 1 16.4681 17.929 -8.71931
98 6 3 17.1769 18.4637 -7.67162
99 6 1 18.1858 19.4596 -7.73605
100 6 1 17.8411 20.806 -8.22353
101 6 1 18.7724 21.8461 -8.11579
102 6 1 19.7669 21.7484 -7.13368
103 6 1 20.2017 20.4576 -6.83168
104 6 1 19.3082 19.3284 -6.86975
105 6 1 19.9362 18.0242 -6.54703
106 6 3 19.2876 17.0373 -6.14123
107 6 3 21.2406 17.9008 -6.20617
111 6 2 17.2472 20.8583 -9.10976
114 6 2 20.9241 20.5475 -6.04736
115 6 2 22.0648 17.8313 -6.92722
112 6 2 18.3978 22.8139 -8.44337
113 6 2 20.5392 22.5434 -7.21041
32 3 1 15.1025 -5.87149 6.76409
45 3 2 14.0964 -5.54484 6.29073
46 3 2 15.2368 -5.40911 7.74504
47 3 2 15.1892 -7.00617 6.80709
33 3 1 16.2206 -5.28106 6.02613
34 3 3 16.1671 -5.1976 4.77591
35 3 3 17.4765 -5.17701 6.63182
36 3 1 18.3823 -4.06747 6.35869
41 3 1 19.7145 -4.13832 6.73055
42 3 1 20.4626 -5.50798 6.90917
43 3 3 20.3203 -6.48619 6.09524
44 3 3 21.6485 -5.59301 7.56846
52 3 2 21.9983 -4.86848 8.18586
37 3 1 17.8262 -2.82615 6.56671
38 3 1 18.5519 -1.66274 6.32977
39 3 1 19.9381 -1.77413 6.58723
40 3 1 20.5297 -3.02682 6.30168
48 3 2 16.7838 -2.6966 6.32759
49 3 2 18.0867 -0.700595 6.61662
50 3 2 20.4868 -0.873022 6.29951
51 3 2 21.5625 -2.99382 6.39869
55 4 3 5.33072 17.6333 8.65899
69 4 2 6.01639 20.9303 9.21283
70 4 2 7.18059 22.8965 9.45279
11 2 1 -12.4802 -23.4081 12.0073
12 2 1 -11.1843 -23.0173 11.3369
13 2 3 -10.8723 -23.4917 10.2028
14 2 3 -10.1374 -22.6753 12.1813
24 2 2 -13.4548 -23.1951 11.3996
25 2 2 -12.5251 -22.7871 12.9852
26 2 2 -12.4519 -24.5363 12.2886
21 2 1 -7.48081 -23.4161 13.2068
22 2 3 -6.99502 -24.0758 12.2766
23 2 3 -7.11412 -23.9015 14.4738
31 2 2 -6.40437 -23.3692 15.0178
20 2 1 -7.98179 -22.0519 12.9231
27 2 2 -10.1976 -20.3499 10.8974
16 2 1 -9.33787 -20.5133 11.5462
28 2 2 -8.50865 -18.686 11.1502
15 2 1 -9.05495 -21.8193 11.9307
17 2 1 -8.22182 -19.6836 11.3252
18 2 1 -7.15218 -19.8034 12.2459
19 2 1 -6.93244 -21.055 12.799
29 2 2 -6.24248 -19.2704 12.1188
30 2 2 -6.33852 -20.9816 13.6552
1 1 1 18.7205 7.39714 15.1146
2 1 1 19.3515 8.13783 14.2685
3 1 1 20.728 8.49241 14.4479
7 1 2 17.7004 7.11299 15.0572
8 1 2 18.744 8.65749 13.4916
5 1 4 21.4499 8.75197 13.2629
10 1 2 21.084 8.32267 12.3981
9 1 2 22.4793 8.98742 13.3447
4 1 3 21.0243 9.26763 15.3679
59 4 1 7.67141 21.878 9.69625
68 4 2 4.29065 16.9086 11.2242
54 4 1 5.18822 18.1435 9.78472
53 4 1 4.02913 17.7453 10.5607
56 4 3 6.3777 18.4715 10.516
57 4 1 7.33071 19.5797 10.2418
58 4 1 6.75001 20.8333 9.92407
60 4 1 8.72106 21.9298 10.5692
62 4 1 8.48048 19.5703 11.075
66 4 2 3.10391 17.524 9.95764
67 4 2 3.7134 18.5799 11.1814
63 4 1 9.14431 18.2483 11.3612
61 4 1 9.32444 20.68 10.8917
64 4 3 9.74991 17.6729 10.3698
65 4 3 9.75376 18.1537 12.619
72 4 2 10.13 20.8221 11.6053
73 4 2 9.33851 18.6819 13.4385
71 4 2 9.46472 22.7633 10.3866
6 1 2 19.3338 6.99478 15.9049
ITEM: TIMESTEP
2420
ITEM: NUMBER OF ATOMS
115
ITEM: BOX BOUNDS pp pp pp
-2.8628399999999999e+01 2.8628399999999999e+01
-2.8628399999999999e+01 2.8628399999999999e+01
-2.8628399999999999e+01 2.8628399999999999e+01
ITEM: ATOMS id mol type x y z
74 5 1 13.1334 -12.8167 -12.5537
75 5 1 13.9068 -11.6799 -13.006
76 5 3 13.9909 -11.3984 -14.2161
77 5 3 14.7226 -11.1832 -11.9784
78 5 1 15.4055 -9.93812 -12.0833
87 5 2 12.1227 -12.8313 -13.0564
88 5 2 12.9562 -12.7477 -11.4002
89 5 2 13.575 -13.8262 -12.8231
83 5 1 16.7123 -9.79349 -11.5823
84 5 1 17.856 -10.8321 -11.6675
85 5 3 17.4154 -12.0138 -11.4989
86 5 3 19.0871 -10.6953 -10.9671
94 5 2 19.1488 -11.0831 -9.93897
79 5 1 14.5283 -8.82571 -11.9363
80 5 1 15.0608 -7.51612 -11.8026
90 5 2 13.608 -8.86741 -12.5051
91 5 2 14.4197 -6.65874 -11.4967
81 5 1 16.3644 -7.49303 -11.2933
82 5 1 17.2597 -8.42929 -11.7079
92 5 2 16.7742 -6.51943 -11.1247
93 5 2 18.1891 -8.34731 -11.0953
97 6 3 17.1766 17.3472 -9.62156
110 6 2 15.4124 16.1342 -8.02791
95 6 1 15.2097 17.15 -8.40933
108 6 2 14.5634 17.0579 -9.23803
109 6 2 14.7112 17.635 -7.59688
96 6 1 16.4916 17.8834 -8.71705
98 6 3 17.1051 18.4848 -7.63018
99 6 1 18.0956 19.5069 -7.64771
100 6 1 17.8138 20.8286 -8.17667
101 6 1 18.7788 21.8118 -8.18151
102 6 1 19.6984 21.7503 -7.14314
103 6 1 20.2568 20.4638 -6.896
104 6 1 19.2919 19.3672 -6.79582
105 6 1 19.9264 17.9958 -6.58264
106 6 3 19.3034 17.0231 -6.07014
107 6 3 21.3058 17.9438 -6.28418
111 6 2 17.072 20.8849 -9.06641
114 6 2 21.0682 20.4798 -6.09389
115 6 2 21.9761 17.7699 -6.95038
112 6 2 18.3936 22.8065 -8.48167
113 6 2 20.3696 22.6242 -6.90002
32 3 1 15.1021 -5.9644 6.82869
45 3 2 14.1757 -5.68238 6.24347
46 3 2 15.0886 -5.74486 7.9116
47 3 2 15.1937 -6.99334 6.76258
33 3 1 16.2339 -5.2283 6.11354
34 3 3 16.1626 -5.28446 4.84963
35 3 3 17.5214 -5.17529 6.64385
36 3 1 18.3639 -4.04979 6.3392
41 3 1 19.7616 -4.21431 6.6937
42 3 1 20.5183 -5.54476 6.77895
43 3 3 20.2668 -6.56027 5.9987
44 3 3 21.6394 -5.5321 7.63685
52 3 2 21.8022 -4.80878 8.33374
37 3 1 17.7776 -2.76533 6.57099
38 3 1 18.5629 -1.59949 6.39466
39 3 1 19.9369 -1.72932 6.62308
40 3 1 20.5358 -3.00389 6.29273
48 3 2 16.7471 -2.57582 6.3291
49 3 2 18.1154 -0.647998 6.5268
50 3 2 20.5848 -0.814616 6.69812
51 3 2 21.6236 -2.99926 6.33905
55 4 3 5.31711 17.6171 8.5802
69 4 2 5.7564 21.0654 9.42219
70 4 2 7.31603 22.8801 9.61786
11 2 1 -12.4496 -23.3638 11.9786
12 2 1 -11.1765 -22.9792 11.3985
13 2 3 -10.9275 -23.4954 10.2486
14 2 3 -10.0418 -22.7624 12.1322
24 2 2 -13.2621 -23.2914 11.2093
25 2 2 -12.652 -22.7679 12.87
26 2 2 -12.4053 -24.4838 12.2698
21 2 1 -7.51378 -23.4928 13.194
22 2 3 -6.99858 -24.1575 12.2638
23 2 3 -7.27149 -23.7969 14.5075
31 2 2 -6.33183 -23.5243 14.7682
20 2 1 -7.89124 -22.0207 12.9011
27 2 2 -10.0637 -20.3611 10.7848
16 2 1 -9.26344 -20.4784 11.5519
28 2 2 -8.38368 -18.7422 10.8611
15 2 1 -8.9517 -21.8472 11.8945
17 2 1 -8.19069 -19.6544 11.3376
18 2 1 -7.1126 -19.7695 12.2342
19 2 1 -6.91358 -20.9837 12.9645
29 2 2 -6.24824 -19.0389 12.2423
30 2 2 -6.12957 -21.0085 13.6911
1 1 1 18.6805 7.34482 15.1554
2 1 1 19.3177 8.04905 14.2573
3 1 1 20.7485 8.41273 14.447
7 1 2 17.5871 7.21012 15.0659
8 1 2 18.7359 8.47435 13.4974
5 1 4 21.5245 8.68986 13.2018
10 1 2 21.4833 8.03804 12.3879
9 1 2 22.4367 9.11963 13.3774
4 1 3 20.951 9.30669 15.3565
59 4 1 7.68889 21.8846 9.77162
68 4 2 4.23771 16.735 11.0247
54 4 1 5.29553 18.1434 9.72637
53 4 1 4.11383 17.723 10.5572
56 4 3 6.40968 18.4992 10.4484
57 4 1 7.30298 19.5286 10.1739
58 4 1 6.75905 20.846 9.92945
60 4 1 8.83085 21.8716 10.5761
62 4 1 8.4713 19.5366 11.0334
66 4 2 3.12591 17.7926 10.0113
67 4 2 4.04198 18.4454 11.4334
63 4 1 9.11243 18.2663 11.319
61 4 1 9.38656 20.6181 10.8813
64 4 3 9.67198 17.6877 10.3485
65 4 3 9.72839 18.0556 12.5353
72 4 2 10.136 20.7288 11.6666
73 4 2 9.25638 18.2433 13.3377
71 4 2 9.4703 22.7435 10.6217
6 1 2 19.2087 6.92863 16.054
ITEM: TIMESTEP
2440
ITEM: NUMBER OF ATOMS
115
ITEM: BOX BOUNDS pp pp pp
-2.8628399999999999e+01 2.8628399999999999e+01
-2.8628399999999999e+01 2.8628399999999999e+01
-2.8628399999999999e+01 2.8628399999999999e+01
ITEM: ATOMS id mol type x y z
74 5 1 13.1012 -12.8588 -12.451
75 5 1 13.844 -11.6843 -12.9999
76 5 3 13.925 -11.343 -14.2102
77 5 3 14.8276 -11.1695 -12.1007
78 5 1 15.4546 -9.89759 -12.1574
87 5 2 12.1641 -12.9835 -13.0636
88 5 2 12.8071 -12.8528 -11.389
89 5 2 13.7304 -13.8006 -12.5318
83 5 1 16.7632 -9.80123 -11.4975
84 5 1 17.8275 -10.9152 -11.5742
85 5 3 17.3721 -12.1096 -11.5279
86 5 3 19.0613 -10.7915 -10.9407
94 5 2 19.3175 -10.745 -9.95334
79 5 1 14.5541 -8.84807 -11.8251
80 5 1 15.0328 -7.57179 -11.9065
90 5 2 13.4655 -8.94722 -11.9989
91 5 2 14.3401 -6.77822 -11.6741
81 5 1 16.3026 -7.40566 -11.3314
82 5 1 17.2435 -8.43526 -11.5986
92 5 2 16.6961 -6.37788 -11.3174
93 5 2 18.2152 -8.23467 -11.9345
97 6 3 17.204 17.3314 -9.62437
110 6 2 15.3625 16.2572 -7.92148
95 6 1 15.1378 17.1353 -8.46949
108 6 2 14.624 16.8374 -9.44549
109 6 2 14.4991 17.8209 -7.89292
96 6 1 16.47 17.8749 -8.72102
98 6 3 17.1091 18.5183 -7.61357
99 6 1 18.1245 19.5563 -7.56451
100 6 1 17.7687 20.7905 -8.13233
101 6 1 18.7174 21.8345 -8.11506
102 6 1 19.6809 21.7708 -7.11283
103 6 1 20.2242 20.4746 -6.9324
104 6 1 19.3421 19.3651 -6.80096
105 6 1 19.9712 17.999 -6.50804
106 6 3 19.2953 16.9824 -6.11057
107 6 3 21.3381 17.9479 -6.27477
111 6 2 17.1299 20.6723 -9.0639
114 6 2 21.1188 20.374 -6.42328
115 6 2 21.8627 17.4476 -6.97082
112 6 2 18.3681 22.7967 -8.41809
113 6 2 20.4836 22.4426 -7.22239
32 3 1 15.1118 -6.00805 6.91454
45 3 2 14.1592 -5.95891 6.44495
46 3 2 15.1285 -5.63576 7.99401
47 3 2 15.3749 -7.14185 6.92612
33 3 1 16.1568 -5.26453 6.1201
34 3 3 16.1494 -5.38309 4.88907
35 3 3 17.4836 -5.18503 6.65205
36 3 1 18.3827 -4.08125 6.35278
41 3 1 19.8104 -4.18352 6.55006
42 3 1 20.5451 -5.44987 6.75134
43 3 3 20.249 -6.45776 6.08466
44 3 3 21.5607 -5.55343 7.62615
52 3 2 21.6973 -4.79547 8.32172
37 3 1 17.8636 -2.77122 6.56389
38 3 1 18.6461 -1.63006 6.32259
39 3 1 19.9931 -1.77797 6.57127
40 3 1 20.6124 -3.01834 6.29562
48 3 2 16.8321 -2.62535 6.34379
49 3 2 18.2132 -0.697934 6.70873
50 3 2 20.5399 -0.85502 6.31233
51 3 2 21.6843 -3.01622 6.47435
55 4 3 5.4032 17.6923 8.55819
69 4 2 5.93744 20.9964 9.42765
70 4 2 7.34341 22.8624 9.49487
11 2 1 -12.4137 -23.3552 12.0842
12 2 1 -11.1042 -22.9828 11.3586
13 2 3 -10.9654 -23.4798 10.1774
14 2 3 -9.98443 -22.7014 12.1268
24 2 2 -13.348 -23.1898 11.4667
25 2 2 -12.4784 -22.6908 12.9513
26 2 2 -12.3768 -24.3254 12.5206
21 2 1 -7.39788 -23.4294 13.1611
22 2 3 -7.04739 -24.1915 12.2569
23 2 3 -7.29943 -23.8289 14.5342
31 2 2 -6.45353 -23.9158 14.9559
20 2 1 -7.83463 -22.0323 12.8417
27 2 2 -10.151 -20.3744 10.8672
16 2 1 -9.22815 -20.5507 11.5267
28 2 2 -8.4586 -18.6308 11.0748
15 2 1 -8.89944 -21.8677 11.9208
17 2 1 -8.18328 -19.6119 11.3867
18 2 1 -7.18361 -19.6704 12.2981
19 2 1 -6.88567 -20.9963 12.9288
29 2 2 -6.29093 -19.0301 12.1073
30 2 2 -6.32267 -20.9275 13.8755
1 1 1 18.6501 7.30031 15.2368
2 1 1 19.366 8.00074 14.3338
3 1 1 20.8021 8.46676 14.4212
7 1 2 17.5879 7.05211 15.1497
8 1 2 18.8416 8.35802 13.4153
5 1 4 21.4566 8.61115 13.1638
10 1 2 21.2818 7.86746 12.4649
9 1 2 22.3935 9.06703 13.092
4 1 3 20.9098 9.25932 15.3811
59 4 1 7.69456 21.9206 9.83615
68 4 2 4.28946 16.7308 10.8549
54 4 1 5.2584 18.2268 9.70275
53 4 1 4.07781 17.736 10.5582
56 4 3 6.40852 18.4422 10.4131
57 4 1 7.28031 19.5381 10.1861
58 4 1 6.75785 20.8329 10.0182
60 4 1 8.85518 21.8933 10.6582
62 4 1 8.46133 19.5229 10.9951
66 4 2 3.09816 17.7643 9.98465
67 4 2 3.99119 18.3528 11.4804
63 4 1 9.16525 18.2527 11.254
61 4 1 9.35186 20.6134 10.8132
64 4 3 9.62315 17.6473 10.2669
65 4 3 9.68532 18.0979 12.5739
72 4 2 10.3342 20.5204 11.2175
73 4 2 9.14058 18.226 13.3737
71 4 2 9.61212 22.596 10.379
6 1 2 19.1483 7.05847 16.16
ITEM: TIMESTEP
2460
ITEM: NUMBER OF ATOMS
115
ITEM: BOX BOUNDS pp pp pp
-2.8628399999999999e+01 2.8628399999999999e+01
-2.8628399999999999e+01 2.8628399999999999e+01
-2.8628399999999999e+01 2.8628399999999999e+01
ITEM: ATOMS id mol type x y z
74 5 1 13.1549 -12.86 -12.4333
75 5 1 13.7918 -11.5737 -12.8815
76 5 3 13.8514 -11.3297 -14.0821
77 5 3 14.9316 -11.1864 -12.1927
78 5 1 15.539 -9.84631 -12.1215
87 5 2 12.1992 -12.9243 -12.8557
88 5 2 13.0265 -12.8393 -11.3437
89 5 2 13.7197 -13.7616 -12.7179
83 5 1 16.7721 -9.74812 -11.4552
84 5 1 17.6953 -10.9199 -11.5663
85 5 3 17.328 -12.1399 -11.5515
86 5 3 18.9494 -10.8043 -10.9685
94 5 2 19.1394 -10.8962 -9.98986
79 5 1 14.5554 -8.89 -11.7694
80 5 1 15.0719 -7.58509 -11.8085
90 5 2 13.5885 -8.89014 -12.2891
91 5 2 14.3616 -6.77946 -11.6401
81 5 1 16.3748 -7.33418 -11.4315
82 5 1 17.3033 -8.40895 -11.4544
92 5 2 16.7617 -6.28619 -11.3597
93 5 2 17.9029 -8.27229 -12.3434
97 6 3 17.2473 17.2759 -9.56129
110 6 2 15.4521 16.4538 -7.75829
95 6 1 15.231 17.2528 -8.50336
108 6 2 14.8829 16.8212 -9.46387
109 6 2 14.4603 17.9991 -8.13996
96 6 1 16.5315 17.9393 -8.74049
98 6 3 17.1805 18.4861 -7.66511
99 6 1 18.2331 19.4572 -7.63133
100 6 1 17.7456 20.8101 -8.02093
101 6 1 18.7588 21.8397 -8.12241
102 6 1 19.7282 21.7646 -7.18726
103 6 1 20.3007 20.4548 -6.89014
104 6 1 19.3119 19.4059 -6.70516
105 6 1 20.0046 18.0956 -6.479
106 6 3 19.3031 17.0209 -6.22051
107 6 3 21.3922 17.9929 -6.22602
111 6 2 16.8739 20.898 -8.58968
114 6 2 21.0966 20.3977 -6.20746
115 6 2 21.9028 17.3009 -6.73782
112 6 2 18.4332 22.7681 -8.42964
113 6 2 20.3915 22.5759 -7.09984
32 3 1 15.1739 -6.0778 6.96465
45 3 2 14.1835 -6.10793 6.55258
46 3 2 15.1051 -5.5709 7.95895
47 3 2 15.4795 -7.12846 7.03549
33 3 1 16.1702 -5.30694 6.12583
34 3 3 16.1267 -5.43275 4.82463
35 3 3 17.4647 -5.11832 6.68382
36 3 1 18.3772 -4.08801 6.33293
41 3 1 19.8063 -4.14998 6.54256
42 3 1 20.6038 -5.44811 6.69726
43 3 3 20.309 -6.48765 6.00428
44 3 3 21.64 -5.50224 7.69151
52 3 2 21.7561 -4.885 8.48441
37 3 1 17.9451 -2.79513 6.61713
38 3 1 18.6942 -1.67717 6.29035
39 3 1 20.1003 -1.78423 6.47737
40 3 1 20.6386 -3.02315 6.31462
48 3 2 16.883 -2.64752 6.49766
49 3 2 18.3282 -0.715938 6.40957
50 3 2 20.6825 -0.912194 6.33914
51 3 2 21.679 -3.05709 6.55123
55 4 3 5.4269 17.7058 8.55644
69 4 2 5.8308 20.9709 9.73163
70 4 2 7.20111 22.9804 9.87308
11 2 1 -12.3319 -23.314 12.0941
12 2 1 -11.1309 -22.9549 11.2799
13 2 3 -10.9549 -23.4454 10.1553
14 2 3 -10.1019 -22.655 12.1123
24 2 2 -13.2963 -23.3661 11.4971
25 2 2 -12.4138 -22.5086 12.8718
26 2 2 -12.0914 -24.2462 12.6626
21 2 1 -7.29301 -23.4074 13.1443
22 2 3 -7.07046 -24.1719 12.2508
23 2 3 -7.23304 -23.8845 14.484
31 2 2 -6.35795 -23.8049 15.0392
20 2 1 -7.84742 -21.995 12.8022
27 2 2 -10.0763 -20.288 10.8127
16 2 1 -9.27808 -20.4921 11.5388
28 2 2 -8.52053 -18.5701 11.1338
15 2 1 -8.93667 -21.8662 11.8695
17 2 1 -8.24758 -19.601 11.3984
18 2 1 -7.2512 -19.7247 12.3494
19 2 1 -6.85933 -20.9733 12.7911
29 2 2 -6.58563 -18.9154 12.5056
30 2 2 -6.08251 -20.9666 13.5937
1 1 1 18.8195 7.30328 15.2631
2 1 1 19.353 7.95351 14.2513
3 1 1 20.7145 8.49085 14.4026
7 1 2 17.8182 6.97919 15.2108
8 1 2 18.6862 8.2989 13.4798
5 1 4 21.4188 8.58131 13.1785
10 1 2 21.2921 7.77699 12.5073
9 1 2 22.3496 9.0713 13.206
4 1 3 21.0674 9.25254 15.353
59 4 1 7.63098 21.9689 9.90997
68 4 2 4.23407 16.792 10.8571
54 4 1 5.28763 18.2118 9.70216
53 4 1 4.09911 17.833 10.5416
56 4 3 6.43333 18.4598 10.4079
57 4 1 7.33011 19.5871 10.1692
58 4 1 6.7608 20.869 10.1278
60 4 1 8.77138 21.9012 10.6887
62 4 1 8.49903 19.5362 11.0023
66 4 2 3.18303 17.8683 9.85185
67 4 2 4.0576 18.5321 11.3691
63 4 1 9.16396 18.212 11.249
61 4 1 9.39133 20.6313 10.749
64 4 3 9.64195 17.6199 10.2722
65 4 3 9.69816 18.1344 12.5486
72 4 2 10.335 20.6171 11.3395
73 4 2 9.08789 18.3545 13.415
71 4 2 9.37397 22.7889 10.6781
6 1 2 19.4088 7.02176 16.0906
ITEM: TIMESTEP
2480
ITEM: NUMBER OF ATOMS
115
ITEM: BOX BOUNDS pp pp pp
-2.8628399999999999e+01 2.8628399999999999e+01
-2.8628399999999999e+01 2.8628399999999999e+01
-2.8628399999999999e+01 2.8628399999999999e+01
ITEM: ATOMS id mol type x y z
74 5 1 13.1774 -12.8224 -12.3745
75 5 1 13.8356 -11.5092 -12.8921
76 5 3 13.7702 -11.3434 -14.1266
77 5 3 14.962 -11.1306 -12.2059
78 5 1 15.4873 -9.87229 -12.0568
87 5 2 12.0747 -12.9357 -12.6056
88 5 2 13.1908 -12.8173 -11.2747
89 5 2 13.7755 -13.7269 -12.772
83 5 1 16.7554 -9.78096 -11.4106
84 5 1 17.708 -10.9398 -11.5421
85 5 3 17.3192 -12.1627 -11.6364
86 5 3 18.9406 -10.7601 -10.9621
94 5 2 19.0336 -11.1268 -10.0132
79 5 1 14.596 -8.80268 -11.7793
80 5 1 15.1558 -7.48478 -11.8227
90 5 2 13.5388 -8.83638 -12.0399
91 5 2 14.511 -6.62375 -11.5874
81 5 1 16.456 -7.38654 -11.4205
82 5 1 17.3496 -8.45071 -11.6184
92 5 2 16.91 -6.34307 -11.4018
93 5 2 18.0988 -8.24645 -12.4275
97 6 3 17.2721 17.1836 -9.57227
110 6 2 15.5551 16.4128 -7.82497
95 6 1 15.3111 17.321 -8.39406
108 6 2 14.8877 17.0385 -9.37826
109 6 2 14.6025 18.0246 -7.95405
96 6 1 16.6017 17.9311 -8.77516
98 6 3 17.3121 18.4029 -7.66603
99 6 1 18.2952 19.4431 -7.71495
100 6 1 17.875 20.7877 -7.9987
101 6 1 18.7704 21.7535 -8.06019
102 6 1 19.7679 21.7732 -7.1361
103 6 1 20.2908 20.5379 -6.79339
104 6 1 19.3101 19.424 -6.72643
105 6 1 19.9776 18.1765 -6.43515
106 6 3 19.302 17.1211 -6.18884
107 6 3 21.3146 18.0684 -6.1407
111 6 2 17.0086 20.8727 -8.65222
114 6 2 20.9526 20.4959 -5.85833
115 6 2 21.9773 17.3521 -6.38938
112 6 2 18.3879 22.6749 -8.41905
113 6 2 20.5101 22.5788 -7.24333
32 3 1 15.3431 -6.05206 6.95782
45 3 2 14.2706 -5.95863 6.64018
46 3 2 15.2928 -5.75788 7.97574
47 3 2 15.6501 -7.0826 6.97697
33 3 1 16.2929 -5.29257 6.1173
34 3 3 16.103 -5.56385 4.89789
35 3 3 17.5904 -5.08854 6.58424
36 3 1 18.4806 -4.04647 6.26214
41 3 1 19.8253 -4.20854 6.59901
42 3 1 20.5989 -5.48959 6.73762
43 3 3 20.4843 -6.45456 5.9566
44 3 3 21.6094 -5.47501 7.64948
52 3 2 21.5603 -4.94141 8.4572
37 3 1 17.9855 -2.74216 6.60711
38 3 1 18.7911 -1.67064 6.22624
39 3 1 20.1819 -1.78878 6.50658
40 3 1 20.7076 -3.06291 6.24205
48 3 2 16.9449 -2.62094 6.46382
49 3 2 18.4152 -0.695644 6.39247
50 3 2 20.7756 -0.925986 6.11386
51 3 2 21.7599 -3.03682 6.48085
55 4 3 5.35592 17.6858 8.51133
69 4 2 5.79011 20.9585 9.60709
70 4 2 7.10991 22.8996 10.0068
11 2 1 -12.3621 -23.3454 12.0692
12 2 1 -11.1994 -22.8459 11.3039
13 2 3 -10.8856 -23.4628 10.2006
14 2 3 -10.0712 -22.663 12.1236
24 2 2 -13.1304 -23.5767 11.3529
25 2 2 -12.7387 -22.5792 12.7758
26 2 2 -11.9981 -24.2686 12.632
21 2 1 -7.30697 -23.4279 13.097
22 2 3 -7.00329 -24.1615 12.1325
23 2 3 -7.06832 -23.8422 14.4033
31 2 2 -6.23085 -23.532 14.8965
20 2 1 -7.83411 -22.0143 12.7825
27 2 2 -10.0524 -20.4007 10.6026
16 2 1 -9.30773 -20.5127 11.3746
28 2 2 -8.57439 -18.6582 11.0894
15 2 1 -8.96493 -21.8202 11.8654
17 2 1 -8.26543 -19.6123 11.337
18 2 1 -7.28267 -19.7186 12.401
19 2 1 -6.85723 -21.0341 12.6699
29 2 2 -6.39939 -19.0559 12.3501
30 2 2 -5.99568 -21.1726 13.3355
1 1 1 18.9147 7.29054 15.2511
2 1 1 19.4091 8.03778 14.3042
3 1 1 20.7533 8.5463 14.3166
7 1 2 17.896 6.81143 15.1114
8 1 2 18.7726 8.215 13.5036
5 1 4 21.4729 8.58986 13.0593
10 1 2 21.3931 7.79856 12.3756
9 1 2 22.2843 9.24092 12.9587
4 1 3 21.179 9.22416 15.2622
59 4 1 7.61021 21.9559 9.99713
68 4 2 3.99134 16.9153 11.0209
54 4 1 5.30841 18.1725 9.67387
53 4 1 4.15679 17.9615 10.5851
56 4 3 6.47432 18.5536 10.3968
57 4 1 7.3261 19.6602 10.2057
58 4 1 6.72701 20.9064 10.1478
60 4 1 8.76463 21.9429 10.7333
62 4 1 8.53766 19.5386 10.9934
66 4 2 3.19025 18.2003 10.0565
67 4 2 4.31188 18.6404 11.506
63 4 1 9.12336 18.1744 11.2103
61 4 1 9.43388 20.6462 10.8646
64 4 3 9.72724 17.5788 10.3254
65 4 3 9.75148 18.1152 12.4688
72 4 2 10.4111 20.5649 11.3206
73 4 2 9.20896 18.3434 13.266
71 4 2 9.41784 22.7687 10.4323
6 1 2 19.5113 7.05905 16.1645
ITEM: TIMESTEP
2500
ITEM: NUMBER OF ATOMS
115
ITEM: BOX BOUNDS pp pp pp
-2.8628399999999999e+01 2.8628399999999999e+01
-2.8628399999999999e+01 2.8628399999999999e+01
-2.8628399999999999e+01 2.8628399999999999e+01
ITEM: ATOMS id mol type x y z
74 5 1 13.319 -12.8004 -12.3173
75 5 1 13.8159 -11.5472 -12.9108
76 5 3 13.792 -11.3471 -14.1399
77 5 3 14.8729 -11.1278 -12.0771
78 5 1 15.4684 -9.84394 -12.1385
87 5 2 12.2524 -12.9262 -12.6583
88 5 2 13.2484 -12.7239 -11.1908
89 5 2 13.9456 -13.6809 -12.6853
83 5 1 16.7873 -9.83457 -11.5012
84 5 1 17.7679 -10.9829 -11.6022
85 5 3 17.4284 -12.2154 -11.5865
86 5 3 19.004 -10.8247 -10.8844
94 5 2 19.0452 -10.9525 -9.92542
79 5 1 14.6174 -8.71595 -11.7572
80 5 1 15.2147 -7.50518 -11.796
90 5 2 13.6051 -8.65865 -12.2004
91 5 2 14.5848 -6.71507 -11.567
81 5 1 16.5434 -7.41812 -11.3865
82 5 1 17.3829 -8.50777 -11.7039
92 5 2 16.9587 -6.46903 -11.2953
93 5 2 17.97 -8.33182 -12.6
97 6 3 17.2611 17.2207 -9.59663
110 6 2 15.36 16.3836 -7.6808
95 6 1 15.2627 17.3015 -8.33956
108 6 2 14.6838 17.1248 -9.21211
109 6 2 14.8685 18.1613 -7.88805
96 6 1 16.6224 17.8017 -8.6905
98 6 3 17.3683 18.4387 -7.67114
99 6 1 18.287 19.4897 -7.73652
100 6 1 17.8302 20.7374 -8.11448
101 6 1 18.7834 21.8587 -8.16384
102 6 1 19.7181 21.8317 -7.11325
103 6 1 20.2288 20.6331 -6.64896
104 6 1 19.3534 19.406 -6.7311
105 6 1 20.0209 18.1242 -6.39179
106 6 3 19.3225 17.1043 -6.14942
107 6 3 21.3324 18.1224 -6.02099
111 6 2 17.0613 20.6644 -8.84473
114 6 2 20.9736 20.6661 -5.90108
115 6 2 21.9694 17.2404 -5.90616
112 6 2 18.3772 22.8399 -8.36472
113 6 2 20.4247 22.6168 -7.09314
32 3 1 15.4403 -6.09242 6.97515
45 3 2 14.2899 -5.9301 6.90942
46 3 2 15.6272 -5.79266 8.02707
47 3 2 15.7012 -7.21078 6.94775
33 3 1 16.3386 -5.2812 6.07512
34 3 3 16.1234 -5.5923 4.88403
35 3 3 17.7251 -5.12526 6.48237
36 3 1 18.5774 -3.97065 6.28843
41 3 1 19.9057 -4.15327 6.6535
42 3 1 20.5265 -5.51355 6.78109
43 3 3 20.6415 -6.40693 5.87653
44 3 3 21.6497 -5.47393 7.60407
52 3 2 21.6113 -5.07139 8.52724
37 3 1 18.0217 -2.72378 6.56341
38 3 1 18.7984 -1.63918 6.2497
39 3 1 20.2087 -1.86178 6.42127
40 3 1 20.7553 -3.14323 6.2017
48 3 2 16.9225 -2.57216 6.31956
49 3 2 18.4075 -0.623386 6.65106
50 3 2 20.8695 -0.960219 6.21639
51 3 2 21.8365 -3.1933 6.44364
55 4 3 5.32934 17.6738 8.57213
69 4 2 5.78905 21.0149 9.55419
70 4 2 7.17 22.9533 9.73529
11 2 1 -12.4554 -23.3724 12.0872
12 2 1 -11.1909 -22.8581 11.372
13 2 3 -10.8581 -23.4246 10.2867
14 2 3 -10.0317 -22.6299 12.1231
24 2 2 -13.2466 -23.4367 11.3062
25 2 2 -12.763 -22.5838 12.8393
26 2 2 -12.23 -24.3593 12.5658
21 2 1 -7.45143 -23.4292 13.048
22 2 3 -7.0444 -24.2831 12.1934
23 2 3 -7.03299 -23.7137 14.2913
31 2 2 -6.37149 -23.093 14.7613
20 2 1 -7.77392 -22.023 12.7056
27 2 2 -10.0075 -20.3679 10.6319
16 2 1 -9.23569 -20.4955 11.3861
28 2 2 -8.3226 -18.6199 11.0363
15 2 1 -8.92748 -21.8615 11.7841
17 2 1 -8.16458 -19.5766 11.3221
18 2 1 -7.20035 -19.6322 12.3441
19 2 1 -6.82828 -20.9913 12.641
29 2 2 -6.44576 -18.8983 12.4829
30 2 2 -6.09385 -21.0366 13.3904
1 1 1 19.0212 7.33389 15.3301
2 1 1 19.4664 8.08997 14.3176
3 1 1 20.7785 8.66923 14.2199
7 1 2 18.0156 7.01666 15.2737
8 1 2 18.7427 8.38764 13.5036
5 1 4 21.5165 8.57231 12.9289
10 1 2 21.3129 7.75221 12.2725
9 1 2 21.963 9.48903 12.5082
4 1 3 21.2179 9.2574 15.2493
59 4 1 7.61923 22.0502 10.0131
68 4 2 4.16781 16.972 10.8482
54 4 1 5.26933 18.2816 9.67219
53 4 1 4.15052 18.0689 10.6059
56 4 3 6.50736 18.4689 10.3066
57 4 1 7.30398 19.5408 10.2715
58 4 1 6.72041 20.8991 10.1918
60 4 1 8.86433 21.9445 10.7092
62 4 1 8.51402 19.5277 10.9953
66 4 2 3.16704 18.3276 10.1953
67 4 2 4.38676 18.6983 11.4435
63 4 1 9.18303 18.1777 11.2961
61 4 1 9.4038 20.647 10.8754
64 4 3 9.75949 17.5074 10.4083
65 4 3 9.80923 18.0938 12.4779
72 4 2 10.3963 20.6378 11.3287
73 4 2 9.36828 18.3578 13.2694
71 4 2 9.59875 22.7314 10.7158
6 1 2 19.6413 7.01708 16.1018
ITEM: TIMESTEP
2520
ITEM: NUMBER OF ATOMS
115
ITEM: BOX BOUNDS pp pp pp
-2.8628399999999999e+01 2.8628399999999999e+01
-2.8628399999999999e+01 2.8628399999999999e+01
-2.8628399999999999e+01 2.8628399999999999e+01
ITEM: ATOMS id mol type x y z
74 5 1 13.3092 -12.8083 -12.3092
75 5 1 13.7843 -11.5435 -12.8649
76 5 3 13.9027 -11.388 -14.0806
77 5 3 14.8377 -11.0887 -12.0483
78 5 1 15.469 -9.86133 -12.13
87 5 2 12.4897 -13.2099 -12.8697
88 5 2 12.9672 -12.6506 -11.2448
89 5 2 14.2165 -13.5248 -12.3305
83 5 1 16.8083 -9.77434 -11.5516
84 5 1 17.7645 -10.8926 -11.5186
85 5 3 17.4852 -12.1171 -11.4787
86 5 3 18.9655 -10.7183 -10.8953
94 5 2 19.0615 -10.6356 -9.89316
79 5 1 14.6574 -8.78329 -11.8518
80 5 1 15.2161 -7.44688 -11.7667
90 5 2 13.6031 -8.88107 -12.0838
91 5 2 14.5194 -6.7068 -11.5331
81 5 1 16.5823 -7.43929 -11.3197
82 5 1 17.3499 -8.56215 -11.7482
92 5 2 17.0551 -6.47003 -11.4856
93 5 2 17.8069 -8.43276 -12.6896
97 6 3 17.23 17.2082 -9.56372
110 6 2 15.3456 16.3526 -7.60051
95 6 1 15.2043 17.2827 -8.26594
108 6 2 14.5562 17.1071 -9.16937
109 6 2 14.6964 18.0909 -7.56674
96 6 1 16.6189 17.7431 -8.61243
98 6 3 17.3251 18.4541 -7.60923
99 6 1 18.3447 19.4865 -7.71396
100 6 1 17.8568 20.7222 -8.21518
101 6 1 18.7915 21.8196 -8.21927
102 6 1 19.5701 21.8888 -7.10963
103 6 1 20.1513 20.6018 -6.73866
104 6 1 19.3549 19.4 -6.6804
105 6 1 20.0341 18.0708 -6.39491
106 6 3 19.2708 17.0629 -6.01621
107 6 3 21.3668 18.0151 -5.87317
111 6 2 17.103 20.6763 -9.01961
114 6 2 20.8685 20.6979 -5.97062
115 6 2 21.8131 17.1953 -5.56369
112 6 2 18.3853 22.7385 -8.57484
113 6 2 20.2732 22.6892 -7.12425
32 3 1 15.5276 -6.06233 7.03375
45 3 2 14.4608 -5.73452 6.88276
46 3 2 15.5936 -5.68723 8.09129
47 3 2 15.6763 -7.10541 7.05325
33 3 1 16.4121 -5.36432 6.06865
34 3 3 16.2022 -5.56603 4.82496
35 3 3 17.6951 -5.1502 6.44784
36 3 1 18.4948 -3.98726 6.28892
41 3 1 19.9143 -4.20669 6.63836
42 3 1 20.6012 -5.53691 6.88331
43 3 3 20.6426 -6.24146 5.82344
44 3 3 21.7656 -5.4845 7.64271
52 3 2 21.6823 -5.11034 8.60106
37 3 1 17.9611 -2.70485 6.62422
38 3 1 18.8424 -1.62187 6.30702
39 3 1 20.2534 -1.82122 6.42781
40 3 1 20.7271 -3.10329 6.14496
48 3 2 16.909 -2.50708 6.42103
49 3 2 18.4466 -0.650913 6.41368
50 3 2 20.8269 -1.02021 6.11478
51 3 2 21.8188 -3.14481 6.16763
55 4 3 5.29121 17.6908 8.61815
69 4 2 5.78923 21.0392 9.74301
70 4 2 7.15649 22.9774 9.98282
11 2 1 -12.404 -23.3332 12.0875
12 2 1 -11.1742 -22.8826 11.3734
13 2 3 -10.9698 -23.364 10.252
14 2 3 -10.0266 -22.6518 12.1723
24 2 2 -13.2843 -23.0618 11.4681
25 2 2 -12.4597 -22.6731 12.9548
26 2 2 -12.3302 -24.4466 12.2692
21 2 1 -7.43082 -23.3855 13.0084
22 2 3 -7.0843 -24.3109 12.1716
23 2 3 -7.04937 -23.585 14.3586
31 2 2 -6.26402 -23.0416 14.7545
20 2 1 -7.77904 -22.0106 12.6644
27 2 2 -9.90874 -20.3562 10.6938
16 2 1 -9.19203 -20.5028 11.471
28 2 2 -8.4989 -18.5206 11.2553
15 2 1 -8.93096 -21.8792 11.7932
17 2 1 -8.21714 -19.5297 11.4376
18 2 1 -7.17312 -19.6572 12.369
19 2 1 -6.73521 -20.9907 12.6072
29 2 2 -6.28986 -18.9923 12.1641
30 2 2 -5.84664 -21.0195 13.1549
1 1 1 18.9777 7.35911 15.2912
2 1 1 19.3788 8.186 14.3089
3 1 1 20.794 8.61192 14.2372
7 1 2 17.9738 6.91753 15.3036
8 1 2 18.6961 8.52217 13.5748
5 1 4 21.4858 8.59256 12.9806
10 1 2 21.4198 7.7849 12.286
9 1 2 21.6068 9.49276 12.5296
4 1 3 21.2367 9.2821 15.1834
59 4 1 7.68324 21.9879 10.0038
68 4 2 4.02999 17.1222 10.9248
54 4 1 5.31137 18.2567 9.78255
53 4 1 4.07447 18.186 10.6526
56 4 3 6.55995 18.395 10.3467
57 4 1 7.38245 19.5449 10.1632
58 4 1 6.78178 20.908 10.1848
60 4 1 8.84358 21.9087 10.7186
62 4 1 8.53717 19.5343 10.9878
66 4 2 3.14272 18.3435 10.1371
67 4 2 4.13988 18.8621 11.504
63 4 1 9.20936 18.2006 11.3459
61 4 1 9.37402 20.6565 10.8915
64 4 3 9.75828 17.5063 10.4258
65 4 3 9.87317 18.0529 12.5515
72 4 2 10.2763 20.6763 11.3607
73 4 2 9.41283 18.1093 13.4775
71 4 2 9.55393 22.641 10.3883
6 1 2 19.602 7.11526 16.1294
ITEM: TIMESTEP
2540
ITEM: NUMBER OF ATOMS
115
ITEM: BOX BOUNDS pp pp pp
-2.8628399999999999e+01 2.8628399999999999e+01
-2.8628399999999999e+01 2.8628399999999999e+01
-2.8628399999999999e+01 2.8628399999999999e+01
ITEM: ATOMS id mol type x y z
74 5 1 13.2564 -12.9242 -12.3527
75 5 1 13.7415 -11.5493 -12.804
76 5 3 13.8765 -11.4171 -14.0463
77 5 3 14.8179 -11.11 -12.0387
78 5 1 15.463 -9.87144 -12.113
87 5 2 12.3813 -13.2188 -12.9405
88 5 2 12.8652 -12.9233 -11.2858
89 5 2 13.9497 -13.6945 -12.4596
83 5 1 16.7999 -9.81718 -11.4796
84 5 1 17.9115 -10.871 -11.5647
85 5 3 17.4441 -12.0809 -11.5013
86 5 3 19.0629 -10.5423 -10.8241
94 5 2 19.1373 -10.384 -9.81825
79 5 1 14.6691 -8.70713 -11.8544
80 5 1 15.2994 -7.41181 -11.8247
90 5 2 13.6956 -8.67664 -12.3179
91 5 2 14.591 -6.5604 -11.5753
81 5 1 16.5362 -7.40129 -11.305
82 5 1 17.3496 -8.46371 -11.7009
92 5 2 16.94 -6.44423 -11.0732
93 5 2 17.8761 -8.27927 -12.6597
97 6 3 17.222 17.2952 -9.47121
110 6 2 15.4573 16.284 -7.73201
95 6 1 15.2453 17.2492 -8.1668
108 6 2 14.6777 17.1697 -9.13601
109 6 2 14.7585 17.8419 -7.3693
96 6 1 16.5865 17.847 -8.57143
98 6 3 17.3311 18.4337 -7.53272
99 6 1 18.3896 19.4175 -7.75362
100 6 1 17.8696 20.6877 -8.18671
101 6 1 18.7655 21.7076 -8.19259
102 6 1 19.6483 21.7783 -7.12637
103 6 1 20.2257 20.5604 -6.67824
104 6 1 19.4373 19.3726 -6.78927
105 6 1 20.0209 18.1004 -6.3096
106 6 3 19.3126 17.0517 -5.97926
107 6 3 21.2832 18.042 -5.74068
111 6 2 17.2339 20.6655 -9.04139
114 6 2 20.8558 20.6869 -5.79639
115 6 2 21.7803 17.2189 -5.76373
112 6 2 18.248 22.6559 -8.52835
113 6 2 20.2528 22.6839 -7.06363
32 3 1 15.5713 -6.10673 6.95856
45 3 2 14.4794 -5.94357 6.80611
46 3 2 15.6952 -5.81796 8.05739
47 3 2 15.8523 -7.12678 6.86325
33 3 1 16.4137 -5.29642 6.09769
34 3 3 16.1831 -5.50915 4.83334
35 3 3 17.7449 -5.14692 6.54359
36 3 1 18.5492 -4.01612 6.31731
41 3 1 19.9007 -4.17403 6.67935
42 3 1 20.6021 -5.49789 6.83711
43 3 3 20.7247 -6.16895 5.81751
44 3 3 21.7188 -5.53071 7.64439
52 3 2 21.7118 -4.99939 8.42751
37 3 1 18.0133 -2.77193 6.62286
38 3 1 18.8005 -1.6354 6.38125
39 3 1 20.2135 -1.83069 6.46021
40 3 1 20.6175 -3.14978 6.18003
48 3 2 17.0445 -2.58686 6.3784
49 3 2 18.3959 -0.739836 6.68876
50 3 2 20.755 -0.988483 6.01625
51 3 2 21.7043 -3.26641 6.23449
55 4 3 5.29609 17.6995 8.6917
69 4 2 5.83368 20.7608 9.73519
70 4 2 7.06261 22.9222 9.74175
11 2 1 -12.4208 -23.3863 12.1341
12 2 1 -11.1163 -22.9861 11.4394
13 2 3 -10.9635 -23.35 10.2535
14 2 3 -9.99586 -22.7174 12.2536
24 2 2 -13.3041 -23.01 11.5392
25 2 2 -12.5062 -22.8076 13.1503
26 2 2 -12.4564 -24.5036 12.2273
21 2 1 -7.40042 -23.3332 13.0816
22 2 3 -7.0445 -24.1925 12.2376
23 2 3 -7.01235 -23.5061 14.4153
31 2 2 -5.99853 -23.2621 14.5974
20 2 1 -7.78194 -21.994 12.6715
27 2 2 -10.1806 -20.2943 11.0534
16 2 1 -9.25056 -20.4933 11.5592
28 2 2 -8.51525 -18.4624 11.3499
15 2 1 -8.93438 -21.8267 11.9134
17 2 1 -8.24143 -19.5021 11.5832
18 2 1 -7.10707 -19.7124 12.4211
19 2 1 -6.73196 -21.0239 12.6146
29 2 2 -6.37072 -19.0106 12.3946
30 2 2 -5.85658 -21.117 13.3296
1 1 1 18.907 7.35189 15.2172
2 1 1 19.3654 8.16914 14.2707
3 1 1 20.8366 8.53497 14.3011
7 1 2 17.8582 7.01507 15.2045
8 1 2 18.7127 8.53779 13.486
5 1 4 21.357 8.63154 13.0175
10 1 2 21.6585 7.78216 12.4674
9 1 2 21.1144 9.55958 12.5158
4 1 3 21.3109 9.29127 15.1736
59 4 1 7.57027 21.9405 10.0299
68 4 2 3.91301 17.2323 11.2768
54 4 1 5.32142 18.1288 9.88505
53 4 1 4.10802 18.2034 10.6863
56 4 3 6.54176 18.4172 10.4346
57 4 1 7.40473 19.543 10.2883
58 4 1 6.7705 20.7941 10.1171
60 4 1 8.87869 21.9041 10.6417
62 4 1 8.58483 19.4813 11.0557
66 4 2 3.16816 18.3737 10.0714
67 4 2 4.12071 19.1328 11.3204
63 4 1 9.2224 18.1078 11.3678
61 4 1 9.45887 20.5841 10.891
64 4 3 9.77164 17.517 10.3461
65 4 3 9.85217 17.9481 12.5873
72 4 2 10.2681 20.6444 11.6091
73 4 2 9.21944 18.0841 13.4133
71 4 2 9.45997 22.8422 10.6796
6 1 2 19.5455 6.99094 16.0069
ITEM: TIMESTEP
2560
ITEM: NUMBER OF ATOMS
115
ITEM: BOX BOUNDS pp pp pp
-2.8628399999999999e+01 2.8628399999999999e+01
-2.8628399999999999e+01 2.8628399999999999e+01
-2.8628399999999999e+01 2.8628399999999999e+01
ITEM: ATOMS id mol type x y z
74 5 1 13.2297 -13.014 -12.4693
75 5 1 13.8065 -11.6849 -12.7846
76 5 3 13.8233 -11.4033 -14.0228
77 5 3 14.8775 -11.134 -12.0145
78 5 1 15.4821 -9.83934 -12.0288
87 5 2 12.1289 -13.1145 -12.8117
88 5 2 13.3113 -13.3403 -11.4345
89 5 2 13.7877 -13.7671 -13.1228
83 5 1 16.8635 -9.70324 -11.5037
84 5 1 17.9753 -10.8176 -11.5727
85 5 3 17.5419 -11.9953 -11.3889
86 5 3 19.1458 -10.6191 -10.8331
94 5 2 19.2913 -10.493 -9.83942
79 5 1 14.6403 -8.66767 -11.8911
80 5 1 15.2415 -7.40608 -11.7797
90 5 2 13.6202 -8.7261 -12.2697
91 5 2 14.5671 -6.55914 -11.7048
81 5 1 16.5237 -7.43649 -11.2015
82 5 1 17.3957 -8.45251 -11.6352
92 5 2 16.9729 -6.4784 -11.1257
93 5 2 17.8237 -8.24475 -12.6594
97 6 3 17.1281 17.2826 -9.48775
110 6 2 15.4838 16.3684 -7.63906
95 6 1 15.237 17.3572 -8.14066
108 6 2 14.6401 17.1038 -9.02825
109 6 2 14.7162 17.9896 -7.45386
96 6 1 16.5884 17.9334 -8.55491
98 6 3 17.4205 18.4313 -7.52875
99 6 1 18.3997 19.3591 -7.74603
100 6 1 17.9261 20.619 -8.19115
101 6 1 18.7802 21.7253 -8.14135
102 6 1 19.6778 21.6847 -7.02854
103 6 1 20.3379 20.4581 -6.71233
104 6 1 19.4902 19.3105 -6.69925
105 6 1 20.137 18.0451 -6.35712
106 6 3 19.3126 17.0728 -6.05046
107 6 3 21.2625 18.056 -5.63425
111 6 2 17.1 20.5312 -8.91141
114 6 2 21.0367 20.5721 -5.95228
115 6 2 21.9889 17.2686 -5.79966
112 6 2 18.3282 22.6875 -8.53429
113 6 2 20.3147 22.5338 -7.03181
32 3 1 15.5065 -6.2194 6.90958
45 3 2 14.4693 -6.22868 6.69781
46 3 2 15.599 -5.87281 7.95527
47 3 2 15.8597 -7.26169 6.88929
33 3 1 16.3613 -5.36704 6.06487
34 3 3 16.1923 -5.4228 4.8067
35 3 3 17.674 -5.1471 6.57536
36 3 1 18.5522 -4.11158 6.26406
41 3 1 19.9451 -4.2036 6.69566
42 3 1 20.5473 -5.50848 6.76361
43 3 3 20.7789 -6.24626 5.77277
44 3 3 21.6876 -5.51913 7.61224
52 3 2 21.5566 -5.23039 8.57733
37 3 1 17.9304 -2.81903 6.66956
38 3 1 18.7526 -1.72005 6.50034
39 3 1 20.1128 -1.87896 6.34029
40 3 1 20.7888 -3.09431 6.12978
48 3 2 16.9164 -2.56311 6.4732
49 3 2 18.5064 -0.775556 6.99275
50 3 2 20.5654 -0.968336 6.20167
51 3 2 21.8304 -3.0547 6.31349
55 4 3 5.29654 17.5886 8.719
69 4 2 5.96176 20.7418 9.41172
70 4 2 7.15627 22.7966 9.87789
11 2 1 -12.4018 -23.4042 12.1799
12 2 1 -11.1641 -22.9673 11.4285
13 2 3 -10.9393 -23.3281 10.2733
14 2 3 -10.0553 -22.7737 12.2502
24 2 2 -13.2869 -23.3055 11.489
25 2 2 -12.6131 -22.749 13.1151
26 2 2 -12.375 -24.5035 12.3896
21 2 1 -7.38063 -23.3233 13.1448
22 2 3 -6.98335 -24.1474 12.2115
23 2 3 -6.98829 -23.5038 14.5113
31 2 2 -6.07171 -23.208 14.7756
20 2 1 -7.85935 -21.9728 12.8029
27 2 2 -10.0464 -20.2647 10.8284
16 2 1 -9.3174 -20.3913 11.6347
28 2 2 -8.58074 -18.4417 11.3967
15 2 1 -9.0269 -21.7906 12.022
17 2 1 -8.24645 -19.456 11.5713
18 2 1 -7.09881 -19.6713 12.3992
19 2 1 -6.7615 -21.0414 12.5276
29 2 2 -6.25275 -19.012 12.2928
30 2 2 -5.8185 -21.1951 13.0417
1 1 1 18.8125 7.37861 15.1607
2 1 1 19.4197 8.17303 14.238
3 1 1 20.861 8.47605 14.2748
7 1 2 17.7743 7.27635 15.2266
8 1 2 18.781 8.84859 13.6609
5 1 4 21.4313 8.61285 12.9391
10 1 2 21.6476 7.63832 12.5526
9 1 2 21.0706 9.28819 12.2714
4 1 3 21.3358 9.21419 15.122
59 4 1 7.57793 21.8607 9.95154
68 4 2 3.9371 17.293 11.2389
54 4 1 5.31198 18.2045 9.8563
53 4 1 4.08938 18.2438 10.6798
56 4 3 6.47769 18.3949 10.5894
57 4 1 7.35324 19.4837 10.2821
58 4 1 6.72813 20.744 10.1211
60 4 1 8.77178 21.8072 10.6685
62 4 1 8.59341 19.421 11.0473
66 4 2 3.14826 18.4546 10.1591
67 4 2 4.18918 19.0909 11.3193
63 4 1 9.27929 18.1535 11.3411
61 4 1 9.43812 20.6177 10.894
64 4 3 9.80272 17.4575 10.4048
65 4 3 9.86914 17.8733 12.5844
72 4 2 10.3698 20.7486 11.4515
73 4 2 9.39992 18.2716 13.3968
71 4 2 9.3506 22.6901 10.5813
6 1 2 19.4058 6.67168 15.7821
ITEM: TIMESTEP
2580
ITEM: NUMBER OF ATOMS
115
ITEM: BOX BOUNDS pp pp pp
-2.8628399999999999e+01 2.8628399999999999e+01
-2.8628399999999999e+01 2.8628399999999999e+01
-2.8628399999999999e+01 2.8628399999999999e+01
ITEM: ATOMS id mol type x y z
74 5 1 13.2063 -12.9762 -12.502
75 5 1 13.7768 -11.6463 -12.7857
76 5 3 13.7351 -11.2778 -13.9792
77 5 3 14.867 -11.142 -11.992
78 5 1 15.5669 -9.8797 -12.0618
87 5 2 12.1485 -13.0666 -12.8817
88 5 2 13.1818 -13.1642 -11.393
89 5 2 13.8149 -13.6941 -13.01
83 5 1 16.8776 -9.66331 -11.4089
84 5 1 17.9442 -10.7896 -11.4846
85 5 3 17.4888 -11.949 -11.3562
86 5 3 19.1515 -10.6371 -10.9241
94 5 2 19.3533 -10.7085 -9.92138
79 5 1 14.6896 -8.73845 -11.9003
80 5 1 15.2734 -7.44555 -11.7678
90 5 2 13.8055 -8.78217 -12.5752
91 5 2 14.615 -6.70889 -11.6099
81 5 1 16.5541 -7.31418 -11.2242
82 5 1 17.3884 -8.36397 -11.6061
92 5 2 16.9265 -6.32477 -10.9836
93 5 2 17.9765 -8.10412 -12.4598
97 6 3 17.0656 17.2702 -9.49004
110 6 2 15.3102 16.5006 -7.47213
95 6 1 15.2107 17.4213 -8.10797
108 6 2 14.6022 17.1961 -8.96169
109 6 2 14.6906 18.2528 -7.52837
96 6 1 16.5138 17.9367 -8.56329
98 6 3 17.4134 18.4287 -7.56325
99 6 1 18.4367 19.3214 -7.74391
100 6 1 18.043 20.5875 -8.20962
101 6 1 18.8194 21.7121 -8.0823
102 6 1 19.7632 21.7071 -7.05116
103 6 1 20.3212 20.4861 -6.7157
104 6 1 19.5182 19.3098 -6.71867
105 6 1 20.1579 17.9849 -6.38507
106 6 3 19.3375 16.9858 -6.0515
107 6 3 21.2095 17.9855 -5.52805
111 6 2 17.5511 20.5336 -9.16395
114 6 2 21.1188 20.5493 -5.90691
115 6 2 21.9887 17.3876 -5.64684
112 6 2 18.2938 22.6488 -8.25498
113 6 2 20.3974 22.6356 -6.98589
32 3 1 15.5344 -6.26438 6.90892
45 3 2 14.4985 -6.32131 6.56221
46 3 2 15.611 -5.79806 7.88344
47 3 2 15.8108 -7.34417 6.99046
33 3 1 16.3829 -5.4717 5.97554
34 3 3 16.1343 -5.43953 4.73001
35 3 3 17.6999 -5.23469 6.51388
36 3 1 18.4841 -4.10989 6.26491
41 3 1 19.8893 -4.22853 6.5344
42 3 1 20.7114 -5.51599 6.71146
43 3 3 20.7921 -6.32811 5.74763
44 3 3 21.7639 -5.52894 7.60993
52 3 2 21.7108 -5.55274 8.59125
37 3 1 18.0184 -2.84622 6.69107
38 3 1 18.7627 -1.70663 6.46387
39 3 1 20.1692 -1.7964 6.43016
40 3 1 20.6592 -3.08022 6.19143
48 3 2 16.9681 -2.68942 6.6537
49 3 2 18.295 -0.727407 6.78969
50 3 2 20.7155 -0.952049 5.93937
51 3 2 21.7484 -3.26571 6.14829
55 4 3 5.33373 17.5795 8.82423
69 4 2 5.88766 20.7087 9.55419
70 4 2 7.08786 22.6928 9.6468
11 2 1 -12.3864 -23.4764 12.043
12 2 1 -11.1735 -22.9558 11.412
13 2 3 -10.8835 -23.425 10.3309
14 2 3 -10.0255 -22.6494 12.2938
24 2 2 -13.1759 -23.6068 11.3141
25 2 2 -12.6426 -22.7899 12.8698
26 2 2 -12.2261 -24.4779 12.4191
21 2 1 -7.40133 -23.3371 13.2268
22 2 3 -6.95857 -24.0969 12.34
23 2 3 -6.98334 -23.5129 14.5158
31 2 2 -6.09097 -23.2395 14.8473
20 2 1 -7.79794 -21.9178 12.8516
27 2 2 -10.1216 -20.286 11.0598
16 2 1 -9.26478 -20.4202 11.6905
28 2 2 -8.5579 -18.3733 11.4259
15 2 1 -8.97078 -21.7208 12.0482
17 2 1 -8.26727 -19.4207 11.5715
18 2 1 -7.11897 -19.6699 12.2134
19 2 1 -6.78309 -21.0262 12.4753
29 2 2 -6.23434 -19.0703 11.9046
30 2 2 -5.93031 -21.0422 13.1217
1 1 1 18.8415 7.35008 15.0909
2 1 1 19.4543 8.19834 14.2682
3 1 1 20.8915 8.38662 14.2182
7 1 2 17.7493 7.26332 15.0698
8 1 2 18.832 8.75104 13.6161
5 1 4 21.4872 8.50627 12.8866
10 1 2 21.3982 7.76635 12.114
9 1 2 21.6127 9.52397 12.5829
4 1 3 21.3554 9.17066 15.0393
59 4 1 7.57239 21.7684 9.8788
68 4 2 4.05364 17.3153 11.1868
54 4 1 5.2942 18.2781 9.88452
53 4 1 4.07427 18.2606 10.6881
56 4 3 6.47042 18.3755 10.5861
57 4 1 7.40357 19.3873 10.4102
58 4 1 6.78253 20.6048 10.1189
60 4 1 8.71132 21.9034 10.7191
62 4 1 8.66287 19.4018 11.0826
66 4 2 3.13917 18.4027 10.0873
67 4 2 4.12641 19.1427 11.3018
63 4 1 9.34114 18.1531 11.2693
61 4 1 9.36634 20.6399 10.918
64 4 3 9.75582 17.4085 10.303
65 4 3 9.85727 17.8632 12.5371
72 4 2 10.2352 20.7837 11.5213
73 4 2 9.48826 18.289 13.3819
71 4 2 9.262 22.8113 10.622
6 1 2 19.3302 6.72796 15.7432
ITEM: TIMESTEP
2600
ITEM: NUMBER OF ATOMS
115
ITEM: BOX BOUNDS pp pp pp
-2.8628399999999999e+01 2.8628399999999999e+01
-2.8628399999999999e+01 2.8628399999999999e+01
-2.8628399999999999e+01 2.8628399999999999e+01
ITEM: ATOMS id mol type x y z
74 5 1 13.2286 -12.9487 -12.4934
75 5 1 13.6647 -11.5499 -12.7826
76 5 3 13.6118 -11.1224 -13.9594
77 5 3 14.871 -11.1944 -12.0298
78 5 1 15.5672 -9.90757 -12.0207
87 5 2 12.2451 -13.1615 -12.9379
88 5 2 13.0959 -13.0635 -11.382
89 5 2 13.9323 -13.7624 -12.8685
83 5 1 16.8281 -9.69184 -11.4188
84 5 1 17.7905 -10.82 -11.4697
85 5 3 17.4144 -12.0076 -11.4923
86 5 3 19.1228 -10.6075 -11.0046
94 5 2 19.2586 -10.5836 -9.99599
79 5 1 14.7102 -8.75063 -11.8722
80 5 1 15.2321 -7.4238 -11.7599
90 5 2 13.7553 -8.85517 -12.4011
91 5 2 14.5156 -6.68233 -11.4145
81 5 1 16.5534 -7.33938 -11.2249
82 5 1 17.4058 -8.38609 -11.5114
92 5 2 16.9176 -6.29163 -11.2286
93 5 2 17.9127 -8.14064 -12.4559
97 6 3 17.0538 17.2952 -9.57323
110 6 2 15.351 16.5328 -7.59886
95 6 1 15.1366 17.4595 -8.14212
108 6 2 14.4163 17.2393 -8.95058
109 6 2 14.711 18.299 -7.5018
96 6 1 16.507 17.9261 -8.653
98 6 3 17.4023 18.3808 -7.6599
99 6 1 18.4471 19.299 -7.7818
100 6 1 18.0412 20.5825 -8.28168
101 6 1 18.9121 21.7029 -8.08819
102 6 1 19.8466 21.7942 -7.01551
103 6 1 20.3343 20.4949 -6.70476
104 6 1 19.4634 19.364 -6.78042
105 6 1 20.0519 18.0358 -6.37174
106 6 3 19.4061 16.9911 -6.09322
107 6 3 21.1701 18.0593 -5.52674
111 6 2 17.2349 20.6481 -9.00866
114 6 2 21.1143 20.4286 -5.93915
115 6 2 21.7214 17.2967 -5.26693
112 6 2 18.5312 22.6972 -8.37886
113 6 2 20.53 22.6208 -7.08706
32 3 1 15.4482 -6.25124 6.89035
45 3 2 14.4495 -6.17676 6.42121
46 3 2 15.4674 -5.84875 7.93409
47 3 2 15.5546 -7.35183 6.81769
33 3 1 16.3984 -5.51742 5.97116
34 3 3 16.0609 -5.46845 4.78477
35 3 3 17.7308 -5.34656 6.40711
36 3 1 18.4836 -4.11895 6.23558
41 3 1 19.9349 -4.19325 6.60876
42 3 1 20.7667 -5.5163 6.72081
43 3 3 20.8255 -6.32703 5.74678
44 3 3 21.7502 -5.61582 7.61086
52 3 2 21.6195 -5.44456 8.61746
37 3 1 17.956 -2.84327 6.67327
38 3 1 18.7659 -1.70376 6.356
39 3 1 20.1828 -1.8163 6.51755
40 3 1 20.6689 -3.03435 6.14809
48 3 2 16.8574 -2.6554 6.5274
49 3 2 18.2772 -0.766235 6.5213
50 3 2 20.7914 -0.879767 6.31787
51 3 2 21.7107 -3.20626 6.17524
55 4 3 5.28841 17.5316 8.83822
69 4 2 5.82655 20.7876 9.45592
70 4 2 7.12395 22.7503 9.77066
11 2 1 -12.3599 -23.5534 12.0401
12 2 1 -11.088 -22.9449 11.4042
13 2 3 -10.8106 -23.4395 10.3263
14 2 3 -10.0316 -22.6123 12.289
24 2 2 -13.1408 -23.3603 11.3289
25 2 2 -12.5491 -23.0542 13.0201
26 2 2 -12.2704 -24.6777 12.0948
21 2 1 -7.41088 -23.2942 13.2291
22 2 3 -6.93141 -24.1389 12.4204
23 2 3 -6.99094 -23.4513 14.5394
31 2 2 -6.06153 -23.3588 14.8693
20 2 1 -7.80405 -21.8639 12.8258
27 2 2 -10.2144 -20.3113 10.9758
16 2 1 -9.35099 -20.4472 11.6553
28 2 2 -8.64768 -18.4518 11.4349
15 2 1 -8.96086 -21.732 12.0039
17 2 1 -8.35864 -19.4361 11.5116
18 2 1 -7.07359 -19.6636 12.0939
19 2 1 -6.70168 -20.9916 12.5638
29 2 2 -6.26534 -18.9401 11.8412
30 2 2 -5.78506 -21.0986 13.093
1 1 1 18.819 7.24417 14.9831
2 1 1 19.3645 8.1887 14.2066
3 1 1 20.8269 8.48013 14.1157
7 1 2 17.7556 7.14297 15.2306
8 1 2 18.6688 8.80593 13.7122
5 1 4 21.4531 8.50406 12.8257
10 1 2 21.2754 7.78673 12.1614
9 1 2 21.6946 9.4621 12.4132
4 1 3 21.4463 9.19426 14.9885
59 4 1 7.57719 21.7774 9.93095
68 4 2 3.86385 17.1611 11.2625
54 4 1 5.2296 18.222 9.92946
53 4 1 3.97844 18.1742 10.7096
56 4 3 6.46035 18.3072 10.619
57 4 1 7.34082 19.4158 10.377
58 4 1 6.74402 20.6846 10.1332
60 4 1 8.71291 21.8163 10.7438
62 4 1 8.60528 19.4483 11.1139
66 4 2 3.07539 18.2997 10.0352
67 4 2 3.89103 19.0816 11.378
63 4 1 9.29084 18.2121 11.2691
61 4 1 9.38719 20.6169 11.0258
64 4 3 9.6661 17.5551 10.2324
65 4 3 9.87467 17.8686 12.4795
72 4 2 10.2479 20.701 11.669
73 4 2 9.40067 18.1524 13.2749
71 4 2 9.22632 22.7508 10.5635
6 1 2 19.4705 6.55265 15.4916
ITEM: TIMESTEP
2620
ITEM: NUMBER OF ATOMS
115
ITEM: BOX BOUNDS pp pp pp
-2.8628399999999999e+01 2.8628399999999999e+01
-2.8628399999999999e+01 2.8628399999999999e+01
-2.8628399999999999e+01 2.8628399999999999e+01
ITEM: ATOMS id mol type x y z
74 5 1 13.2834 -12.8484 -12.4846
75 5 1 13.7652 -11.4561 -12.7754
76 5 3 13.4548 -10.9915 -13.865
77 5 3 14.925 -11.1309 -12.1086
78 5 1 15.4951 -9.83134 -12.014
87 5 2 12.2534 -13.0147 -12.6985
88 5 2 13.5224 -13.0652 -11.4124
89 5 2 13.8856 -13.5848 -13.0367
83 5 1 16.7786 -9.79034 -11.3107
84 5 1 17.7896 -10.9303 -11.518
85 5 3 17.4271 -12.1339 -11.4868
86 5 3 19.0968 -10.6681 -10.9765
94 5 2 19.2278 -10.6522 -9.98286
79 5 1 14.6291 -8.69332 -11.7746
80 5 1 15.2341 -7.44716 -11.6945
90 5 2 13.6229 -8.78067 -12.0586
91 5 2 14.6554 -6.55969 -11.4814
81 5 1 16.5371 -7.39663 -11.2783
82 5 1 17.3597 -8.51451 -11.4855
92 5 2 16.9693 -6.42862 -11.2434
93 5 2 18.1047 -8.35798 -12.3107
97 6 3 17.0357 17.2413 -9.59217
110 6 2 15.2847 16.3532 -7.99029
95 6 1 15.1146 17.4517 -8.26354
108 6 2 14.3613 17.5677 -9.09728
109 6 2 14.8475 18.0302 -7.43737
96 6 1 16.4818 17.912 -8.68588
98 6 3 17.3748 18.381 -7.73651
99 6 1 18.4247 19.3577 -7.79588
100 6 1 18.0265 20.7233 -8.17647
101 6 1 19.007 21.718 -8.15502
102 6 1 19.7719 21.6676 -7.03952
103 6 1 20.3582 20.4276 -6.77386
104 6 1 19.4118 19.3294 -6.72634
105 6 1 20.0748 18.0293 -6.30237
106 6 3 19.3011 17.0738 -6.21304
107 6 3 21.2734 18.0791 -5.59947
111 6 2 17.4433 20.9124 -9.00535
114 6 2 21.0568 20.4607 -6.01232
115 6 2 21.6777 17.2326 -5.16881
112 6 2 18.7115 22.724 -8.44234
113 6 2 20.3315 22.5953 -6.9114
32 3 1 15.4738 -6.2349 6.86787
45 3 2 14.3525 -6.1236 6.69735
46 3 2 15.8193 -5.81971 7.86509
47 3 2 15.6521 -7.30112 6.64918
33 3 1 16.3747 -5.43708 5.97709
34 3 3 16.0661 -5.44031 4.78141
35 3 3 17.7515 -5.30797 6.447
36 3 1 18.6006 -4.1831 6.27635
41 3 1 19.9757 -4.25735 6.62969
42 3 1 20.6845 -5.59671 6.68374
43 3 3 20.7945 -6.30794 5.64048
44 3 3 21.7045 -5.72894 7.65555
52 3 2 21.5448 -5.24917 8.57239
37 3 1 17.96 -2.94724 6.49756
38 3 1 18.6895 -1.72986 6.31796
39 3 1 20.0398 -1.83531 6.44807
40 3 1 20.6812 -3.08208 6.15967
48 3 2 16.9389 -2.90246 6.25232
49 3 2 18.1937 -0.91458 6.8651
50 3 2 20.6174 -1.01746 6.36059
51 3 2 21.7489 -3.18301 6.2191
55 4 3 5.21141 17.5697 8.82886
69 4 2 5.74102 20.8863 9.5158
70 4 2 6.99765 22.7286 9.97271
11 2 1 -12.3703 -23.5107 12.0214
12 2 1 -11.0218 -23.0039 11.4689
13 2 3 -10.7028 -23.3908 10.3299
14 2 3 -9.98103 -22.6774 12.3409
24 2 2 -13.2297 -23.2858 11.303
25 2 2 -12.5391 -23.0913 13.0706
26 2 2 -12.2273 -24.6387 12.1889
21 2 1 -7.33662 -23.246 13.2804
22 2 3 -6.9076 -24.1341 12.4718
23 2 3 -7.04881 -23.4385 14.5971
31 2 2 -6.11593 -23.31 14.9693
20 2 1 -7.79426 -21.8711 12.7594
27 2 2 -10.111 -20.1581 10.9899
16 2 1 -9.32829 -20.3597 11.6317
28 2 2 -8.54765 -18.4684 11.3072
15 2 1 -8.99506 -21.7625 11.9545
17 2 1 -8.29308 -19.4628 11.4543
18 2 1 -7.10383 -19.6768 12.1072
19 2 1 -6.78086 -20.9422 12.5117
29 2 2 -6.28708 -19.1108 11.8292
30 2 2 -5.983 -20.9188 13.2683
1 1 1 18.8396 7.23074 14.9486
2 1 1 19.355 8.19735 14.1891
3 1 1 20.7973 8.55179 14.088
7 1 2 17.8604 7.04229 14.9697
8 1 2 18.6615 8.73322 13.5896
5 1 4 21.4465 8.58345 12.8226
10 1 2 21.2957 7.71866 12.2895
9 1 2 21.3693 9.45864 12.3045
4 1 3 21.3707 9.13027 15.0305
59 4 1 7.56868 21.8088 9.95764
68 4 2 3.64327 17.2243 11.0914
54 4 1 5.13223 18.1304 9.96031
53 4 1 3.8795 18.2219 10.675
56 4 3 6.36726 18.3783 10.6261
57 4 1 7.24564 19.436 10.3069
58 4 1 6.67389 20.7236 10.1298
60 4 1 8.77983 21.7823 10.7513
62 4 1 8.46556 19.4779 11.1187
66 4 2 3.02134 18.5792 10.0162
67 4 2 3.95737 19.0111 11.5088
63 4 1 9.21348 18.1815 11.2646
61 4 1 9.37862 20.5267 10.9662
64 4 3 9.59179 17.5689 10.1716
65 4 3 9.94387 17.8482 12.3897
72 4 2 10.2877 20.5851 11.631
73 4 2 9.55052 18.1089 13.2879
71 4 2 9.41363 22.6664 10.5904
6 1 2 19.5631 6.59257 15.4364
ITEM: TIMESTEP
2640
ITEM: NUMBER OF ATOMS
115
ITEM: BOX BOUNDS pp pp pp
-2.8628399999999999e+01 2.8628399999999999e+01
-2.8628399999999999e+01 2.8628399999999999e+01
-2.8628399999999999e+01 2.8628399999999999e+01
ITEM: ATOMS id mol type x y z
74 5 1 13.2267 -12.8324 -12.5051
75 5 1 13.7095 -11.4054 -12.7427
76 5 3 13.4104 -10.9266 -13.8491
77 5 3 14.9118 -11.0929 -12.1702
78 5 1 15.4819 -9.83019 -11.9778
87 5 2 12.1671 -12.8927 -12.5891
88 5 2 13.5616 -13.2523 -11.6053
89 5 2 13.5661 -13.5727 -13.2217
83 5 1 16.7631 -9.81759 -11.3882
84 5 1 17.7815 -10.9576 -11.4733
85 5 3 17.4461 -12.1571 -11.3982
86 5 3 19.0328 -10.7467 -10.9963
94 5 2 19.1599 -10.501 -10.0873
79 5 1 14.5642 -8.734 -11.6765
80 5 1 15.1876 -7.48304 -11.6399
90 5 2 13.6134 -8.75822 -12.234
91 5 2 14.6473 -6.63015 -11.2888
81 5 1 16.5451 -7.42851 -11.1215
82 5 1 17.3446 -8.54195 -11.5128
92 5 2 17.0229 -6.45879 -11.0663
93 5 2 17.9642 -8.33618 -12.328
97 6 3 17.0163 17.2571 -9.6513
110 6 2 15.1453 16.258 -7.91225
95 6 1 15.1115 17.3803 -8.26537
108 6 2 14.5182 17.3488 -9.24907
109 6 2 14.5931 18.0259 -7.5631
96 6 1 16.4991 17.8987 -8.69741
98 6 3 17.3936 18.3766 -7.65089
99 6 1 18.383 19.3794 -7.77705
100 6 1 18.0513 20.6644 -8.27368
101 6 1 18.9854 21.723 -8.26002
102 6 1 19.8895 21.6735 -7.15507
103 6 1 20.3207 20.4168 -6.74699
104 6 1 19.3609 19.3558 -6.70306
105 6 1 20.0152 18.0547 -6.19044
106 6 3 19.3806 17.0005 -6.17493
107 6 3 21.2783 18.0178 -5.54011
111 6 2 17.3213 20.6945 -9.07851
114 6 2 20.9221 20.545 -5.87733
115 6 2 21.8113 17.2039 -5.63644
112 6 2 18.7348 22.727 -8.62611
113 6 2 20.729 22.3494 -7.25411
32 3 1 15.5715 -6.24831 6.81371
45 3 2 14.5041 -5.94846 6.70134
46 3 2 15.8551 -6.1003 7.8985
47 3 2 15.5427 -7.32588 6.37058
33 3 1 16.4499 -5.35769 5.99657
34 3 3 16.1985 -5.41142 4.76032
35 3 3 17.7407 -5.2735 6.4669
36 3 1 18.6018 -4.17318 6.23321
41 3 1 19.9801 -4.29239 6.6492
42 3 1 20.6673 -5.59841 6.68298
43 3 3 20.8019 -6.21877 5.59975
44 3 3 21.6522 -5.75649 7.6932
52 3 2 21.5573 -5.42841 8.64048
37 3 1 17.9572 -2.99435 6.4911
38 3 1 18.7069 -1.81107 6.34013
39 3 1 20.094 -1.92302 6.39927
40 3 1 20.7848 -3.18647 6.24565
48 3 2 16.8822 -2.90207 6.37318
49 3 2 18.2512 -0.887051 6.64906
50 3 2 20.6704 -1.09329 6.05645
51 3 2 21.8419 -3.17397 6.6429
55 4 3 5.12979 17.5164 8.77797
69 4 2 5.89984 20.8243 9.57776
70 4 2 7.15698 22.8549 9.87309
11 2 1 -12.2485 -23.5376 11.9996
12 2 1 -10.9965 -22.9739 11.4582
13 2 3 -10.6542 -23.3718 10.3091
14 2 3 -9.97818 -22.6933 12.3746
24 2 2 -13.0184 -23.3101 11.1937
25 2 2 -12.4607 -22.9971 12.9383
26 2 2 -12.1948 -24.5985 12.3066
21 2 1 -7.33612 -23.2126 13.2496
22 2 3 -6.91346 -24.1117 12.4253
23 2 3 -7.10826 -23.4461 14.6034
31 2 2 -6.12954 -23.3503 14.9011
20 2 1 -7.74993 -21.8706 12.7884
27 2 2 -10.1305 -20.3861 10.8947
16 2 1 -9.27917 -20.4688 11.5777
28 2 2 -8.73674 -18.4348 11.1588
15 2 1 -8.95072 -21.8343 12.0582
17 2 1 -8.30797 -19.5266 11.3268
18 2 1 -7.15289 -19.6249 12.1613
19 2 1 -6.73596 -20.9425 12.4897
29 2 2 -6.38479 -18.8097 12.0535
30 2 2 -5.7685 -21.0866 13.0713
1 1 1 18.8743 7.23414 14.8912
2 1 1 19.3548 8.22355 14.1846
3 1 1 20.7827 8.54133 14.1784
7 1 2 17.8613 6.89044 14.7903
8 1 2 18.6961 8.82515 13.4721
5 1 4 21.3351 8.59664 12.7924
10 1 2 21.5848 7.72239 12.3186
9 1 2 21.4867 9.49186 12.3052
4 1 3 21.3363 9.13745 15.1392
59 4 1 7.64127 21.856 10.0048
68 4 2 3.54086 17.3002 11.1383
54 4 1 5.12522 18.163 9.88179
53 4 1 3.80808 18.2381 10.6347
56 4 3 6.28393 18.4386 10.5918
57 4 1 7.24248 19.4223 10.3409
58 4 1 6.75226 20.7389 10.1796
60 4 1 8.70685 21.7387 10.8428
62 4 1 8.4302 19.3493 11.1349
66 4 2 2.97538 18.4445 9.96437
67 4 2 3.77806 18.9637 11.4778
63 4 1 9.12197 18.0205 11.23
61 4 1 9.26618 20.5045 10.9331
64 4 3 9.53503 17.4865 10.1673
65 4 3 10.0125 17.8923 12.2893
72 4 2 10.1924 20.4954 11.4951
73 4 2 9.6757 17.9764 13.2499
71 4 2 9.4666 22.5521 10.8049
6 1 2 19.5248 6.63539 15.5668
ITEM: TIMESTEP
2660
ITEM: NUMBER OF ATOMS
115
ITEM: BOX BOUNDS pp pp pp
-2.8628399999999999e+01 2.8628399999999999e+01
-2.8628399999999999e+01 2.8628399999999999e+01
-2.8628399999999999e+01 2.8628399999999999e+01
ITEM: ATOMS id mol type x y z
74 5 1 13.1884 -12.8805 -12.5572
75 5 1 13.6532 -11.435 -12.7206
76 5 3 13.4481 -10.7991 -13.7585
77 5 3 14.9454 -11.1241 -12.1482
78 5 1 15.4798 -9.85019 -12.0244
87 5 2 12.0779 -12.8001 -12.558
88 5 2 13.5185 -13.3973 -11.5434
89 5 2 13.4403 -13.5272 -13.4191
83 5 1 16.7669 -9.78125 -11.3462
84 5 1 17.7696 -10.9468 -11.5399
85 5 3 17.3614 -12.1286 -11.3143
86 5 3 19.0915 -10.7749 -11.0617
94 5 2 19.2228 -10.3842 -10.096
79 5 1 14.6423 -8.7435 -11.7108
80 5 1 15.1725 -7.50953 -11.5965
90 5 2 13.6671 -8.80263 -12.1287
91 5 2 14.4755 -6.69874 -11.4372
81 5 1 16.4429 -7.43823 -11.0438
82 5 1 17.3544 -8.49322 -11.4469
92 5 2 16.9099 -6.52164 -10.8215
93 5 2 17.7747 -8.21597 -12.4075
97 6 3 17.0118 17.309 -9.70756
110 6 2 15.3124 16.3478 -7.82956
95 6 1 15.2145 17.3615 -8.23961
108 6 2 14.5351 17.3148 -9.07868
109 6 2 14.7174 18.0899 -7.51892
96 6 1 16.5424 17.8354 -8.70211
98 6 3 17.3783 18.3435 -7.70324
99 6 1 18.3639 19.3666 -7.72067
100 6 1 18.0071 20.6145 -8.2905
101 6 1 18.9958 21.6939 -8.27608
102 6 1 19.9367 21.7731 -7.26703
103 6 1 20.3503 20.5106 -6.75256
104 6 1 19.3836 19.4097 -6.65698
105 6 1 20.0526 18.0685 -6.292
106 6 3 19.4118 17.0229 -6.0323
107 6 3 21.1996 18.0221 -5.46933
111 6 2 17.3755 20.5923 -9.20719
114 6 2 21.2192 20.6015 -6.00351
115 6 2 21.9827 17.4838 -5.75643
112 6 2 18.7123 22.6472 -8.64119
113 6 2 20.6115 22.5655 -7.18281
32 3 1 15.4715 -6.18662 6.85056
45 3 2 14.4665 -5.76161 6.77507
46 3 2 15.8068 -6.13474 7.89368
47 3 2 15.4718 -7.23498 6.43146
33 3 1 16.4303 -5.39414 5.99426
34 3 3 16.3976 -5.34075 4.74946
35 3 3 17.7458 -5.29201 6.43877
36 3 1 18.5101 -4.17777 6.1988
41 3 1 19.9237 -4.30865 6.66549
42 3 1 20.7182 -5.63835 6.66866
43 3 3 20.8882 -6.22454 5.55959
44 3 3 21.7196 -5.7764 7.60047
52 3 2 21.5675 -5.6055 8.59481
37 3 1 17.9405 -2.89515 6.58081
38 3 1 18.7314 -1.8312 6.25047
39 3 1 20.1414 -1.93507 6.46861
40 3 1 20.7303 -3.17101 6.36059
48 3 2 16.8886 -2.67714 6.33084
49 3 2 18.3349 -0.927811 6.50457
50 3 2 20.8087 -1.12842 6.08329
51 3 2 21.7387 -3.25832 6.64488
55 4 3 5.12333 17.4574 8.87539
69 4 2 5.83125 20.8307 9.59306
70 4 2 7.17425 22.7021 9.97944
11 2 1 -12.2169 -23.5702 12.0803
12 2 1 -10.9548 -22.9497 11.5318
13 2 3 -10.6385 -23.3607 10.3801
14 2 3 -9.87141 -22.6169 12.3626
24 2 2 -13.0006 -23.6716 11.2883
25 2 2 -12.6084 -23.0126 12.9512
26 2 2 -11.9438 -24.496 12.492
21 2 1 -7.36701 -23.2474 13.2565
22 2 3 -6.91332 -24.076 12.3879
23 2 3 -7.09484 -23.4432 14.6027
31 2 2 -6.12056 -23.2798 14.8896
20 2 1 -7.66048 -21.8857 12.8507
27 2 2 -10.2179 -20.5383 10.953
16 2 1 -9.30126 -20.5689 11.5366
28 2 2 -8.59856 -18.7556 10.8399
15 2 1 -8.82872 -21.8184 11.9772
17 2 1 -8.30003 -19.6639 11.289
18 2 1 -7.20766 -19.6861 12.1989
19 2 1 -6.67506 -20.955 12.4898
29 2 2 -6.55312 -18.8562 12.1033
30 2 2 -5.81128 -20.998 13.0803
1 1 1 18.9714 7.1479 14.7463
2 1 1 19.4001 8.26748 14.1811
3 1 1 20.7593 8.69594 14.1694
7 1 2 17.8244 7.02535 14.7832
8 1 2 18.8254 8.94761 13.6045
5 1 4 21.3779 8.62762 12.8748
10 1 2 21.2756 7.78111 12.3049
9 1 2 21.2779 9.54258 12.3093
4 1 3 21.3559 9.13344 15.1861
59 4 1 7.5905 21.7812 10.1295
68 4 2 3.71642 17.3052 11.3105
54 4 1 5.11105 18.2148 9.90876
53 4 1 3.85699 18.2149 10.6594
56 4 3 6.32558 18.355 10.604
57 4 1 7.24209 19.4258 10.3393
58 4 1 6.72945 20.7054 10.1964
60 4 1 8.69681 21.7083 10.942
62 4 1 8.42652 19.317 11.0694
66 4 2 3.03987 18.1981 9.88106
67 4 2 3.70722 19.0031 11.3861
63 4 1 9.10119 17.9823 11.1676
61 4 1 9.34998 20.4036 10.9701
64 4 3 9.53224 17.4754 10.1062
65 4 3 10.0166 17.7873 12.2337
72 4 2 10.2796 20.2896 11.4496
73 4 2 9.83439 18.2174 13.1296
71 4 2 9.39437 22.5177 11.0047
6 1 2 19.5114 6.50625 15.3148
ITEM: TIMESTEP
2680
ITEM: NUMBER OF ATOMS
115
ITEM: BOX BOUNDS pp pp pp
-2.8628399999999999e+01 2.8628399999999999e+01
-2.8628399999999999e+01 2.8628399999999999e+01
-2.8628399999999999e+01 2.8628399999999999e+01
ITEM: ATOMS id mol type x y z
74 5 1 13.1128 -12.7818 -12.6085
75 5 1 13.6583 -11.4471 -12.7352
76 5 3 13.3343 -10.8101 -13.7326
77 5 3 14.9176 -11.1801 -12.1015
78 5 1 15.5338 -9.9418 -12.0437
87 5 2 12.0047 -12.9142 -12.8827
88 5 2 13.3053 -13.0161 -11.5628
89 5 2 13.6937 -13.5046 -13.2736
83 5 1 16.8212 -9.76823 -11.4123
84 5 1 17.8077 -10.9043 -11.3927
85 5 3 17.3651 -12.0685 -11.234
86 5 3 19.1034 -10.7148 -11.1619
94 5 2 19.3832 -10.6141 -10.2227
79 5 1 14.6398 -8.8483 -11.7597
80 5 1 15.1557 -7.5357 -11.5478
90 5 2 13.6818 -8.88527 -12.1767
91 5 2 14.3976 -6.75215 -11.2927
81 5 1 16.4678 -7.39406 -10.9845
82 5 1 17.3555 -8.39735 -11.4347
92 5 2 16.9026 -6.434 -10.8452
93 5 2 17.9192 -8.03848 -12.2989
97 6 3 17.071 17.4774 -9.71573
110 6 2 15.6126 16.2862 -7.87309
95 6 1 15.2697 17.2349 -8.27695
108 6 2 14.5322 17.2118 -9.0654
109 6 2 14.8943 17.803 -7.43137
96 6 1 16.5433 17.8969 -8.68867
98 6 3 17.4711 18.2916 -7.61388
99 6 1 18.4442 19.3703 -7.67228
100 6 1 17.985 20.6346 -8.23127
101 6 1 18.9666 21.6558 -8.27155
102 6 1 19.8134 21.7914 -7.25509
103 6 1 20.376 20.5406 -6.84764
104 6 1 19.4964 19.4026 -6.65774
105 6 1 20.1019 18.0413 -6.29337
106 6 3 19.4614 17.0281 -6.0449
107 6 3 21.1676 18.0428 -5.47493
111 6 2 17.4477 20.5832 -9.22852
114 6 2 21.1714 20.6629 -6.13776
115 6 2 22.0584 17.5948 -5.77185
112 6 2 18.7072 22.6586 -8.71449
113 6 2 20.5189 22.6302 -7.34037
32 3 1 15.3744 -6.03383 6.84446
45 3 2 14.377 -5.55897 6.55861
46 3 2 15.6047 -5.88632 7.90867
47 3 2 15.4393 -7.08527 6.59072
33 3 1 16.4727 -5.3877 6.00659
34 3 3 16.3993 -5.36389 4.77742
35 3 3 17.7843 -5.23187 6.56943
36 3 1 18.6223 -4.21016 6.31166
41 3 1 19.9702 -4.34248 6.78567
42 3 1 20.7021 -5.60471 6.68923
43 3 3 20.916 -6.23855 5.59249
44 3 3 21.8181 -5.73059 7.48634
52 3 2 21.829 -5.45398 8.44248
37 3 1 17.991 -2.92184 6.46747
38 3 1 18.7647 -1.79051 6.2183
39 3 1 20.1097 -1.93297 6.52789
40 3 1 20.7388 -3.23922 6.39875
48 3 2 16.9506 -2.80262 6.19511
49 3 2 18.357 -0.780919 6.33103
50 3 2 20.7237 -1.02463 6.44946
51 3 2 21.8343 -3.28246 6.61692
55 4 3 5.11023 17.3903 8.93318
69 4 2 5.78998 20.9198 9.59462
70 4 2 7.09011 22.8428 10.4028
11 2 1 -12.1606 -23.5899 12.1809
12 2 1 -10.9946 -22.9715 11.5056
13 2 3 -10.6356 -23.3626 10.3424
14 2 3 -9.9178 -22.5907 12.3314
24 2 2 -12.9961 -23.7264 11.4888
25 2 2 -12.5306 -22.9245 13.0645
26 2 2 -11.8117 -24.5928 12.6078
21 2 1 -7.22038 -23.2042 13.2206
22 2 3 -6.9534 -24.1415 12.3811
23 2 3 -7.12439 -23.4227 14.509
31 2 2 -6.34221 -23.3819 15.0627
20 2 1 -7.69181 -21.9336 12.7347
27 2 2 -10.0666 -20.5475 10.8335
16 2 1 -9.25619 -20.6012 11.5451
28 2 2 -8.57728 -18.718 10.921
15 2 1 -8.86186 -21.8567 11.919
17 2 1 -8.23317 -19.6745 11.2709
18 2 1 -7.17344 -19.6847 12.2012
19 2 1 -6.67047 -20.9428 12.5249
29 2 2 -6.44011 -18.8634 12.0425
30 2 2 -5.8923 -20.9064 13.2534
1 1 1 18.9539 7.14344 14.7876
2 1 1 19.2787 8.35306 14.2479
3 1 1 20.7009 8.8359 14.1245
7 1 2 17.8812 6.91307 14.8324
8 1 2 18.4632 8.96323 13.9377
5 1 4 21.4205 8.64142 12.886
10 1 2 21.6579 7.71237 12.5008
9 1 2 21.7723 9.49034 12.3746
4 1 3 21.3552 9.11351 15.177
59 4 1 7.57124 21.7989 10.3216
68 4 2 3.91569 17.5001 11.4592
54 4 1 5.05726 18.246 9.83499
53 4 1 3.91328 18.2852 10.7131
56 4 3 6.23041 18.4022 10.622
57 4 1 7.24421 19.3559 10.3173
58 4 1 6.68972 20.6738 10.1558
60 4 1 8.76185 21.6353 11.0245
62 4 1 8.44414 19.239 11.0767
66 4 2 2.97952 18.1939 10.1596
67 4 2 3.97783 19.2185 11.3212
63 4 1 9.109 17.8656 11.2022
61 4 1 9.37031 20.3834 10.9745
64 4 3 9.47707 17.5003 10.0627
65 4 3 10.0701 17.7449 12.2291
72 4 2 10.2152 20.3389 11.6158
73 4 2 9.91429 17.821 13.2434
71 4 2 9.44809 22.4923 11.006
6 1 2 19.7019 6.42794 15.1216
ITEM: TIMESTEP
2700
ITEM: NUMBER OF ATOMS
115
ITEM: BOX BOUNDS pp pp pp
-2.8628399999999999e+01 2.8628399999999999e+01
-2.8628399999999999e+01 2.8628399999999999e+01
-2.8628399999999999e+01 2.8628399999999999e+01
ITEM: ATOMS id mol type x y z
74 5 1 13.1147 -12.8264 -12.7026
75 5 1 13.654 -11.4481 -12.7566
76 5 3 13.3366 -10.7786 -13.7795
77 5 3 14.8871 -11.1816 -12.0912
78 5 1 15.4855 -9.86155 -12.0196
87 5 2 12.1199 -12.8673 -13.1163
88 5 2 13.1012 -13.1984 -11.7243
89 5 2 13.6398 -13.5835 -13.3718
83 5 1 16.7822 -9.74339 -11.3475
84 5 1 17.8089 -10.9082 -11.438
85 5 3 17.4267 -12.1163 -11.2428
86 5 3 19.1732 -10.7455 -11.1889
94 5 2 19.5403 -10.4167 -10.3428
79 5 1 14.6205 -8.7727 -11.7701
80 5 1 15.1673 -7.4944 -11.5095
90 5 2 13.6765 -8.80389 -12.336
91 5 2 14.5132 -6.74707 -11.1168
81 5 1 16.4171 -7.42385 -10.9584
82 5 1 17.304 -8.45916 -11.4221
92 5 2 16.8002 -6.39959 -10.812
93 5 2 17.9468 -8.23903 -12.3042
97 6 3 17.138 17.5825 -9.70268
110 6 2 15.5863 16.1613 -7.96064
95 6 1 15.315 17.2135 -8.29211
108 6 2 14.6519 17.2432 -9.1465
109 6 2 14.7845 17.6996 -7.44764
96 6 1 16.5534 18.0011 -8.6525
98 6 3 17.4275 18.3062 -7.68398
99 6 1 18.4918 19.2806 -7.74265
100 6 1 18.0772 20.583 -8.25721
101 6 1 18.92 21.6968 -8.38665
102 6 1 19.8531 21.7681 -7.31429
103 6 1 20.341 20.5467 -6.84142
104 6 1 19.4696 19.3975 -6.72591
105 6 1 20.0785 18.0594 -6.23196
106 6 3 19.378 17.0371 -6.04072
107 6 3 21.3266 18.1304 -5.54042
111 6 2 17.2341 20.5436 -8.89722
114 6 2 21.0643 20.712 -6.0859
115 6 2 21.883 17.3418 -5.41043
112 6 2 18.3786 22.5836 -8.67693
113 6 2 20.5363 22.6242 -7.3322
32 3 1 15.3623 -5.98366 6.7641
45 3 2 14.4226 -5.7578 6.21718
46 3 2 15.3489 -5.67876 7.84023
47 3 2 15.6144 -7.09338 6.8512
33 3 1 16.4979 -5.30874 6.03122
34 3 3 16.4756 -5.41404 4.82554
35 3 3 17.7187 -5.32263 6.67984
36 3 1 18.615 -4.25386 6.33819
41 3 1 20.0115 -4.31124 6.80436
42 3 1 20.7092 -5.67269 6.67624
43 3 3 20.8331 -6.24091 5.54409
44 3 3 21.8837 -5.71121 7.42578
52 3 2 21.7828 -5.33917 8.38642
37 3 1 17.9768 -2.97119 6.43158
38 3 1 18.8198 -1.89006 6.16354
39 3 1 20.1113 -1.91091 6.64077
40 3 1 20.7436 -3.13104 6.51561
48 3 2 16.8837 -2.80421 6.23418
49 3 2 18.3198 -0.953548 6.19643
50 3 2 20.7387 -1.05962 6.48111
51 3 2 21.7962 -3.11597 6.60702
55 4 3 5.08084 17.4035 8.9468
69 4 2 5.89955 20.9476 9.60139
70 4 2 7.04726 22.7357 10.5022
11 2 1 -12.128 -23.5925 12.2044
12 2 1 -10.9949 -22.8871 11.5285
13 2 3 -10.7597 -23.4101 10.3632
14 2 3 -9.93274 -22.6262 12.3728
24 2 2 -12.9877 -23.5085 11.6135
25 2 2 -12.4315 -23.0961 13.1528
26 2 2 -11.8094 -24.7035 12.4288
21 2 1 -7.26047 -23.2815 13.123
22 2 3 -6.87817 -24.2455 12.3683
23 2 3 -7.23302 -23.4611 14.5182
31 2 2 -6.38238 -23.6274 15.0727
20 2 1 -7.66677 -21.8964 12.6816
27 2 2 -10.107 -20.3543 10.9527
16 2 1 -9.18413 -20.524 11.4476
28 2 2 -8.5681 -18.6196 11.0383
15 2 1 -8.88622 -21.7999 11.911
17 2 1 -8.15535 -19.6271 11.2388
18 2 1 -7.06456 -19.6381 12.1443
19 2 1 -6.68963 -20.8868 12.6153
29 2 2 -6.32869 -18.8217 12.0199
30 2 2 -5.79135 -20.9193 13.3445
1 1 1 18.9457 7.17809 14.8624
2 1 1 19.3113 8.376 14.3256
3 1 1 20.7331 8.84194 14.1332
7 1 2 17.981 6.83332 14.7708
8 1 2 18.4284 9.03863 13.9695
5 1 4 21.3314 8.60943 12.9071
10 1 2 21.6332 7.61408 12.6651
9 1 2 21.9445 9.25614 12.54
4 1 3 21.3445 9.07171 15.1709
59 4 1 7.5701 21.7798 10.3784
68 4 2 3.75838 17.6007 11.4055
54 4 1 5.05629 18.2869 9.85191
53 4 1 3.85639 18.4402 10.7402
56 4 3 6.25138 18.4419 10.5763
57 4 1 7.25897 19.3515 10.3221
58 4 1 6.75358 20.7059 10.2776
60 4 1 8.82939 21.5933 11.0381
62 4 1 8.37888 19.2444 11.1357
66 4 2 2.88259 18.3416 10.2263
67 4 2 3.89468 19.3302 11.3361
63 4 1 9.20055 17.959 11.1921
61 4 1 9.2987 20.2858 10.9718
64 4 3 9.35592 17.4361 10.0646
65 4 3 10.0883 17.6847 12.1935
72 4 2 10.355 20.0504 11.2699
73 4 2 9.96979 17.9189 13.1658
71 4 2 9.60072 22.3553 11.0675
6 1 2 19.6983 6.3763 15.1507
ITEM: TIMESTEP
2720
ITEM: NUMBER OF ATOMS
115
ITEM: BOX BOUNDS pp pp pp
-2.8628399999999999e+01 2.8628399999999999e+01
-2.8628399999999999e+01 2.8628399999999999e+01
-2.8628399999999999e+01 2.8628399999999999e+01
ITEM: ATOMS id mol type x y z
74 5 1 13.1351 -12.857 -12.779
75 5 1 13.5976 -11.4282 -12.779
76 5 3 13.39 -10.7343 -13.8026
77 5 3 14.8618 -11.0884 -12.2142
78 5 1 15.4794 -9.82858 -11.9534
87 5 2 12.055 -12.8451 -13.0932
88 5 2 13.2272 -13.3689 -11.7738
89 5 2 13.6324 -13.4864 -13.5467
83 5 1 16.8078 -9.83694 -11.3457
84 5 1 17.8285 -10.9164 -11.5212
85 5 3 17.4529 -12.1249 -11.3058
86 5 3 19.1533 -10.7082 -11.2088
94 5 2 19.3194 -10.4271 -10.2283
79 5 1 14.6342 -8.71684 -11.6269
80 5 1 15.1213 -7.43352 -11.4512
90 5 2 13.6195 -8.78176 -12.0275
91 5 2 14.4316 -6.65805 -11.1159
81 5 1 16.4693 -7.37657 -10.9412
82 5 1 17.3187 -8.4943 -11.4087
92 5 2 16.9279 -6.41902 -10.8413
93 5 2 17.8006 -8.31733 -12.3506
97 6 3 17.1289 17.7417 -9.84242
110 6 2 15.8037 16.1962 -7.94698
95 6 1 15.4278 17.2348 -8.21727
108 6 2 14.6179 17.1704 -8.98923
109 6 2 14.9661 17.7128 -7.25729
96 6 1 16.614 18.0485 -8.66096
98 6 3 17.5004 18.436 -7.67274
99 6 1 18.4319 19.3573 -7.75649
100 6 1 17.9597 20.593 -8.40972
101 6 1 18.8952 21.5993 -8.43421
102 6 1 19.9146 21.6594 -7.43361
103 6 1 20.3416 20.4819 -6.85615
104 6 1 19.4452 19.4197 -6.6946
105 6 1 20.1473 18.1049 -6.2751
106 6 3 19.4577 17.171 -5.96613
107 6 3 21.3926 18.1166 -5.58242
111 6 2 17.3304 20.575 -9.19717
114 6 2 21.0828 20.6895 -6.1002
115 6 2 21.7879 17.2498 -5.34512
112 6 2 18.5686 22.5323 -8.81367
113 6 2 20.6592 22.4438 -7.66869
32 3 1 15.3779 -6.13372 6.87452
45 3 2 14.4148 -5.97123 6.34863
46 3 2 15.3039 -5.73954 7.94307
47 3 2 15.6671 -7.20055 7.06434
33 3 1 16.506 -5.46989 5.99475
34 3 3 16.4944 -5.5217 4.74691
35 3 3 17.726 -5.32347 6.70266
36 3 1 18.623 -4.28557 6.39548
41 3 1 19.9578 -4.3127 6.77935
42 3 1 20.7397 -5.60132 6.64133
43 3 3 20.7114 -6.13809 5.50244
44 3 3 21.9022 -5.78363 7.47445
52 3 2 21.8628 -5.65211 8.47403
37 3 1 18.0416 -2.98087 6.38585
38 3 1 18.7856 -1.81342 6.16195
39 3 1 20.0709 -1.9038 6.67762
40 3 1 20.7583 -3.1822 6.57958
48 3 2 17.0353 -2.91641 6.02098
49 3 2 18.2842 -0.836045 6.36293
50 3 2 20.7287 -1.06054 6.57742
51 3 2 21.7171 -3.16891 7.0195
55 4 3 5.09702 17.3875 9.03108
69 4 2 5.85451 21.0343 9.87171
70 4 2 7.29158 22.7929 10.682
11 2 1 -12.1572 -23.5841 12.2189
12 2 1 -11.0331 -22.9463 11.5468
13 2 3 -10.8404 -23.3829 10.3588
14 2 3 -9.91059 -22.6521 12.3264
24 2 2 -13.146 -23.5504 11.5905
25 2 2 -12.401 -23.0326 13.1799
26 2 2 -11.8941 -24.6618 12.3982
21 2 1 -7.36834 -23.3533 13.1137
22 2 3 -6.74339 -24.14 12.3505
23 2 3 -7.26199 -23.4457 14.4984
31 2 2 -6.33885 -23.3903 15.0445
20 2 1 -7.66937 -22.0212 12.6772
27 2 2 -10.0055 -20.2111 10.8635
16 2 1 -9.13491 -20.3477 11.469
28 2 2 -8.28881 -18.5183 10.7784
15 2 1 -8.84068 -21.7737 11.8997
17 2 1 -8.06372 -19.5159 11.1834
18 2 1 -7.0194 -19.6477 12.1428
19 2 1 -6.65965 -20.9637 12.6265
29 2 2 -6.21126 -18.9809 11.853
30 2 2 -5.91779 -21.0082 13.3566
1 1 1 18.9851 7.14278 14.8312
2 1 1 19.2506 8.33372 14.3351
3 1 1 20.665 8.82805 14.1246
7 1 2 17.9689 6.75516 14.8639
8 1 2 18.4228 8.91894 13.9961
5 1 4 21.3108 8.55544 12.8742
10 1 2 21.4722 7.56349 12.5658
9 1 2 22.0332 9.27541 12.5521
4 1 3 21.3744 8.96469 15.1562
59 4 1 7.63245 21.8471 10.4212
68 4 2 3.64433 17.5508 11.3697
54 4 1 4.98469 18.3316 9.91368
53 4 1 3.76228 18.4588 10.7278
56 4 3 6.26571 18.457 10.5338
57 4 1 7.23688 19.5143 10.3605
58 4 1 6.71114 20.7995 10.3891
60 4 1 8.87301 21.629 10.9601
62 4 1 8.43019 19.2788 11.1127
66 4 2 2.85695 18.2804 10.1842
67 4 2 3.74583 19.3716 11.2934
63 4 1 9.08252 17.9183 11.1994
61 4 1 9.41923 20.3406 10.9876
64 4 3 9.37698 17.2968 10.1548
65 4 3 10.1636 17.702 12.2025
72 4 2 10.279 20.1873 11.6703
73 4 2 10.2697 18.2993 13.0249
71 4 2 9.67764 22.4135 10.8366
6 1 2 19.7452 6.45947 15.2379
ITEM: TIMESTEP
2740
ITEM: NUMBER OF ATOMS
115
ITEM: BOX BOUNDS pp pp pp
-2.8628399999999999e+01 2.8628399999999999e+01
-2.8628399999999999e+01 2.8628399999999999e+01
-2.8628399999999999e+01 2.8628399999999999e+01
ITEM: ATOMS id mol type x y z
74 5 1 13.1941 -12.7364 -12.7302
75 5 1 13.5814 -11.349 -12.7649
76 5 3 13.3119 -10.7492 -13.8267
77 5 3 14.8508 -11.1307 -12.2509
78 5 1 15.4193 -9.83878 -11.9366
87 5 2 12.2134 -12.9344 -13.092
88 5 2 13.2215 -13.1757 -11.7006
89 5 2 13.9217 -13.2459 -13.3712
83 5 1 16.7672 -9.7838 -11.3657
84 5 1 17.786 -10.902 -11.5903
85 5 3 17.4675 -12.1259 -11.3826
86 5 3 19.0826 -10.7067 -11.1317
94 5 2 19.3461 -10.5997 -10.1286
79 5 1 14.5745 -8.69879 -11.5301
80 5 1 15.1956 -7.47542 -11.4585
90 5 2 13.5893 -8.67758 -11.8614
91 5 2 14.5632 -6.64522 -11.0849
81 5 1 16.4974 -7.46386 -11.0463
82 5 1 17.2986 -8.4613 -11.5647
92 5 2 17.0627 -6.61367 -10.9028
93 5 2 17.8329 -8.19667 -12.4002
97 6 3 17.059 17.8592 -9.87257
110 6 2 15.8812 16.2474 -7.71288
95 6 1 15.4977 17.2561 -8.02854
108 6 2 14.5365 17.0721 -8.6391
109 6 2 15.2278 17.7998 -7.14354
96 6 1 16.5562 18.0533 -8.70407
98 6 3 17.514 18.4287 -7.69551
99 6 1 18.4348 19.4418 -7.72935
100 6 1 17.9491 20.6466 -8.39086
101 6 1 18.9056 21.6263 -8.51165
102 6 1 19.9144 21.7195 -7.5579
103 6 1 20.3387 20.4725 -6.87917
104 6 1 19.4452 19.4559 -6.75018
105 6 1 20.1552 18.1784 -6.31257
106 6 3 19.4903 17.2089 -5.96599
107 6 3 21.3465 18.0975 -5.48673
111 6 2 17.3924 20.571 -9.31481
114 6 2 21.0205 20.6258 -6.08727
115 6 2 22.0022 17.254 -5.58752
112 6 2 18.4943 22.5856 -8.91168
113 6 2 20.6611 22.5113 -7.74611
32 3 1 15.4341 -6.18163 6.84416
45 3 2 14.4107 -5.96915 6.4552
46 3 2 15.5263 -5.78392 7.84769
47 3 2 15.7136 -7.27768 6.94333
33 3 1 16.4661 -5.50781 6.00046
34 3 3 16.5099 -5.52166 4.80342
35 3 3 17.7401 -5.3121 6.6115
36 3 1 18.6251 -4.28684 6.27674
41 3 1 19.9746 -4.36067 6.85462
42 3 1 20.7908 -5.62343 6.65171
43 3 3 20.6543 -6.11591 5.51232
44 3 3 21.8781 -5.92862 7.40429
52 3 2 21.7786 -5.8151 8.40109
37 3 1 17.9818 -2.9771 6.25596
38 3 1 18.7637 -1.85398 6.16627
39 3 1 20.0613 -1.88214 6.6367
40 3 1 20.7759 -3.11699 6.73702
48 3 2 17.1089 -2.90339 5.73125
49 3 2 18.2483 -0.956447 6.39215
50 3 2 20.6797 -1.0242 6.42502
51 3 2 21.7886 -3.07474 7.16127
55 4 3 5.06318 17.3557 8.98719
69 4 2 5.7792 21.1138 9.945
70 4 2 7.32842 22.9943 10.4929
11 2 1 -12.2156 -23.6466 12.3018
12 2 1 -11.098 -22.9977 11.5104
13 2 3 -10.8802 -23.4726 10.3357
14 2 3 -9.96101 -22.5998 12.2057
24 2 2 -13.0714 -23.8535 11.7057
25 2 2 -12.5471 -23.0128 13.161
26 2 2 -11.9657 -24.6005 12.6714
21 2 1 -7.32165 -23.321 13.126
22 2 3 -6.69181 -24.1383 12.3985
23 2 3 -7.18083 -23.5298 14.5258
31 2 2 -6.38942 -23.1181 14.9893
20 2 1 -7.72591 -21.9496 12.6751
27 2 2 -9.99893 -20.3832 10.8283
16 2 1 -9.13905 -20.3949 11.4972
28 2 2 -8.04486 -18.5248 10.963
15 2 1 -8.90373 -21.7325 11.9064
17 2 1 -7.92875 -19.5801 11.2372
18 2 1 -6.83657 -19.7315 12.1463
19 2 1 -6.66612 -20.9752 12.6675
29 2 2 -5.98467 -19.0982 12.0489
30 2 2 -5.9592 -21.0275 13.4346
1 1 1 19.0713 7.06969 14.8811
2 1 1 19.2737 8.3075 14.407
3 1 1 20.6004 8.86615 14.1497
7 1 2 18.0301 6.65024 15.0893
8 1 2 18.3755 8.84806 14.1997
5 1 4 21.2366 8.55764 12.8308
10 1 2 21.2618 7.6178 12.5644
9 1 2 22.1507 9.05359 12.6557
4 1 3 21.4734 8.89306 15.0574
59 4 1 7.68109 21.9356 10.4709
68 4 2 3.56714 17.4225 11.3541
54 4 1 5.00047 18.2513 9.90264
53 4 1 3.74705 18.3402 10.7634
56 4 3 6.25613 18.5634 10.5311
57 4 1 7.23463 19.5203 10.3424
58 4 1 6.73581 20.8664 10.4802
60 4 1 8.97722 21.7325 10.9447
62 4 1 8.51138 19.2186 11.0997
66 4 2 2.86724 18.2751 10.1667
67 4 2 3.7067 19.2984 11.3918
63 4 1 9.0816 17.8882 11.1892
61 4 1 9.40801 20.3515 10.9201
64 4 3 9.40152 17.1746 10.2291
65 4 3 10.1007 17.7977 12.1413
72 4 2 10.4062 20.1744 11.2548
73 4 2 10.0661 18.3648 12.9662
71 4 2 9.76567 22.4947 10.9373
6 1 2 19.934 6.48484 15.0913
ITEM: TIMESTEP
2760
ITEM: NUMBER OF ATOMS
115
ITEM: BOX BOUNDS pp pp pp
-2.8628399999999999e+01 2.8628399999999999e+01
-2.8628399999999999e+01 2.8628399999999999e+01
-2.8628399999999999e+01 2.8628399999999999e+01
ITEM: ATOMS id mol type x y z
74 5 1 13.0687 -12.7087 -12.6381
75 5 1 13.5504 -11.2997 -12.8144
76 5 3 13.2711 -10.628 -13.8464
77 5 3 14.7732 -11.061 -12.189
78 5 1 15.4423 -9.87681 -11.926
87 5 2 11.9852 -12.7486 -12.8657
88 5 2 13.1871 -13.08 -11.616
89 5 2 13.5758 -13.3668 -13.2847
83 5 1 16.7709 -9.84666 -11.4368
84 5 1 17.7977 -10.9146 -11.6184
85 5 3 17.3747 -12.0699 -11.3746
86 5 3 19.0737 -10.7073 -11.1514
94 5 2 19.183 -10.6411 -10.1817
79 5 1 14.5994 -8.76751 -11.5352
80 5 1 15.1482 -7.49571 -11.4698
90 5 2 13.6006 -8.7989 -11.9131
91 5 2 14.4838 -6.69791 -11.1701
81 5 1 16.5537 -7.50429 -11.0835
82 5 1 17.3477 -8.58605 -11.5965
92 5 2 17.1165 -6.52163 -10.9849
93 5 2 17.7629 -8.34847 -12.5902
97 6 3 16.9283 17.8795 -9.846
110 6 2 15.8372 16.3158 -7.85405
95 6 1 15.4912 17.3422 -8.0516
108 6 2 14.654 17.2998 -8.73864
109 6 2 15.1493 17.7164 -7.11374
96 6 1 16.5212 18.1985 -8.68751
98 6 3 17.4749 18.4761 -7.74409
99 6 1 18.4998 19.3946 -7.86702
100 6 1 17.9976 20.6834 -8.39168
101 6 1 18.9797 21.6764 -8.54637
102 6 1 19.839 21.8068 -7.49764
103 6 1 20.3398 20.6093 -6.90468
104 6 1 19.5101 19.4576 -6.8237
105 6 1 20.1203 18.1319 -6.30333
106 6 3 19.3985 17.1699 -5.91485
107 6 3 21.335 18.1872 -5.58468
111 6 2 17.2106 20.7171 -9.20562
114 6 2 20.9914 20.8481 -6.04999
115 6 2 21.7283 17.2187 -5.33946
112 6 2 18.5844 22.6301 -9.02566
113 6 2 20.4999 22.5842 -7.57966
32 3 1 15.3686 -6.13232 6.76799
45 3 2 14.4653 -5.83322 6.22055
46 3 2 15.2883 -5.98137 7.84097
47 3 2 15.5823 -7.1913 6.63178
33 3 1 16.4803 -5.40738 6.03562
34 3 3 16.4853 -5.60566 4.80548
35 3 3 17.7815 -5.31131 6.65549
36 3 1 18.6825 -4.26942 6.3198
41 3 1 19.9413 -4.28999 6.8571
42 3 1 20.6587 -5.61365 6.68999
43 3 3 20.7228 -6.11645 5.50874
44 3 3 21.7955 -5.90517 7.40475
52 3 2 21.9089 -5.9791 8.3815
37 3 1 18.0953 -2.96091 6.31614
38 3 1 18.8433 -1.76768 6.16025
39 3 1 20.1347 -1.78572 6.67869
40 3 1 20.7079 -3.07454 6.70285
48 3 2 17.1322 -2.8928 5.92794
49 3 2 18.3833 -0.860806 5.97876
50 3 2 20.8286 -1.00087 6.55738
51 3 2 21.6904 -3.06885 7.14435
55 4 3 5.09423 17.4486 8.95401
69 4 2 5.88486 21.2271 10.0748
70 4 2 7.44205 22.9656 10.641
11 2 1 -12.1923 -23.6148 12.3772
12 2 1 -11.1815 -22.9135 11.5023
13 2 3 -10.9202 -23.4322 10.4161
14 2 3 -10.0171 -22.5657 12.2287
24 2 2 -13.1491 -23.9304 11.9156
25 2 2 -12.3817 -22.9383 13.2418
26 2 2 -11.7804 -24.5292 12.8098
21 2 1 -7.2314 -23.2489 13.2116
22 2 3 -6.80766 -24.0915 12.3826
23 2 3 -7.18053 -23.5051 14.566
31 2 2 -6.68694 -22.8314 15.1186
20 2 1 -7.71504 -21.9191 12.7458
27 2 2 -9.84427 -20.1087 10.8014
16 2 1 -9.02139 -20.4036 11.4423
28 2 2 -8.12225 -18.5953 10.8806
15 2 1 -8.86809 -21.7954 11.8296
17 2 1 -7.94414 -19.5567 11.2888
18 2 1 -6.93277 -19.7493 12.1562
19 2 1 -6.62375 -20.9973 12.6903
29 2 2 -6.11527 -19.0854 11.995
30 2 2 -5.84396 -21.1167 13.4613
1 1 1 19.1517 7.03009 15.065
2 1 1 19.3975 8.25838 14.5393
3 1 1 20.6866 8.82727 14.1808
7 1 2 18.0966 6.70981 15.3018
8 1 2 18.528 8.78067 14.2635
5 1 4 21.1817 8.53918 12.8732
10 1 2 21.077 7.57466 12.4641
9 1 2 21.9403 9.07778 12.4118
4 1 3 21.5474 8.86264 15.0719
59 4 1 7.74493 21.913 10.4208
68 4 2 3.77692 17.3434 11.2627
54 4 1 5.05736 18.3005 9.82711
53 4 1 3.85417 18.2534 10.642
56 4 3 6.22284 18.5134 10.5553
57 4 1 7.18964 19.5215 10.3362
58 4 1 6.83641 20.9086 10.5136
60 4 1 9.01209 21.6594 10.9368
62 4 1 8.49441 19.2649 10.9996
66 4 2 2.92829 18.2201 10.0294
67 4 2 3.76431 19.2246 11.2164
63 4 1 9.19013 17.969 11.1556
61 4 1 9.43731 20.2836 10.8716
64 4 3 9.38818 17.1411 10.1802
65 4 3 10.0559 17.9036 12.2122
72 4 2 10.4545 20.123 11.3034
73 4 2 9.73717 18.1341 13.1055
71 4 2 9.75738 22.2596 10.5986
6 1 2 19.8955 6.32544 15.2161
ITEM: TIMESTEP
2780
ITEM: NUMBER OF ATOMS
115
ITEM: BOX BOUNDS pp pp pp
-2.8628399999999999e+01 2.8628399999999999e+01
-2.8628399999999999e+01 2.8628399999999999e+01
-2.8628399999999999e+01 2.8628399999999999e+01
ITEM: ATOMS id mol type x y z
74 5 1 13.1073 -12.7099 -12.6674
75 5 1 13.5339 -11.3165 -12.8021
76 5 3 13.3321 -10.6589 -13.8998
77 5 3 14.7476 -11.1184 -12.109
78 5 1 15.3867 -9.88954 -11.9664
87 5 2 12.0587 -12.8927 -13.0944
88 5 2 13.1665 -13.0608 -11.6053
89 5 2 13.9086 -13.3166 -13.2267
83 5 1 16.7546 -9.82513 -11.4411
84 5 1 17.7162 -10.9303 -11.6458
85 5 3 17.2298 -12.0612 -11.3703
86 5 3 19.0096 -10.7873 -11.1892
94 5 2 19.1496 -10.5672 -10.2076
79 5 1 14.5545 -8.82371 -11.4826
80 5 1 15.2287 -7.53698 -11.4799
90 5 2 13.4872 -8.79328 -11.7751
91 5 2 14.7169 -6.69143 -11.2568
81 5 1 16.5381 -7.51881 -11.0541
82 5 1 17.2771 -8.51874 -11.6069
92 5 2 17.082 -6.54578 -11.0494
93 5 2 17.7237 -8.29115 -12.5657
97 6 3 16.865 17.9749 -9.79971
110 6 2 15.8817 16.3844 -7.85692
95 6 1 15.454 17.3472 -8.20526
108 6 2 14.5715 17.1836 -8.89157
109 6 2 14.9025 17.7622 -7.27696
96 6 1 16.4729 18.2264 -8.65646
98 6 3 17.4928 18.5386 -7.73976
99 6 1 18.508 19.4625 -7.90738
100 6 1 18.0504 20.6772 -8.37939
101 6 1 18.9949 21.6604 -8.53876
102 6 1 19.8737 21.8012 -7.4941
103 6 1 20.3747 20.6234 -6.90701
104 6 1 19.4876 19.497 -6.90517
105 6 1 20.0853 18.1844 -6.31973
106 6 3 19.2751 17.3038 -5.93261
107 6 3 21.2794 18.2427 -5.64521
111 6 2 17.4257 20.5957 -9.26668
114 6 2 21.0848 20.8774 -6.12708
115 6 2 21.5813 17.3907 -5.1957
112 6 2 18.683 22.5205 -9.0723
113 6 2 20.427 22.7199 -7.34718
32 3 1 15.4369 -6.1703 6.7772
45 3 2 14.4474 -6.08181 6.17567
46 3 2 15.3247 -5.63763 7.82496
47 3 2 15.6711 -7.22586 6.95716
33 3 1 16.502 -5.43986 5.99744
34 3 3 16.5048 -5.65713 4.76631
35 3 3 17.7033 -5.25609 6.61824
36 3 1 18.6347 -4.13557 6.33306
41 3 1 20.0078 -4.24295 6.85399
42 3 1 20.719 -5.55881 6.67793
43 3 3 20.6084 -6.12788 5.56655
44 3 3 21.7627 -5.82429 7.48511
52 3 2 21.6983 -5.57342 8.45338
37 3 1 18.0431 -2.8961 6.43521
38 3 1 18.9229 -1.81001 6.23556
39 3 1 20.1852 -1.82353 6.82361
40 3 1 20.8691 -3.10933 6.71172
48 3 2 16.9959 -2.70851 6.06741
49 3 2 18.4708 -0.852277 6.41683
50 3 2 20.8215 -0.931073 6.70656
51 3 2 21.8679 -3.11608 7.1165
55 4 3 5.1902 17.424 8.94745
69 4 2 5.78829 21.0169 9.95462
70 4 2 7.37953 22.8916 10.2616
11 2 1 -12.2231 -23.4658 12.4894
12 2 1 -11.1223 -22.8954 11.6101
13 2 3 -11.0225 -23.4801 10.4905
14 2 3 -9.9594 -22.4769 12.3309
24 2 2 -13.1581 -23.48 11.856
25 2 2 -12.4528 -22.9513 13.4718
26 2 2 -12.1068 -24.5351 12.6986
21 2 1 -7.2955 -23.2467 13.2344
22 2 3 -6.82147 -24.0761 12.3806
23 2 3 -7.09414 -23.4947 14.5242
31 2 2 -6.68072 -22.7998 15.2322
20 2 1 -7.73363 -21.8444 12.7784
27 2 2 -9.87269 -20.3181 10.7561
16 2 1 -9.04321 -20.4582 11.3849
28 2 2 -8.30156 -18.5756 11.1432
15 2 1 -8.8197 -21.7749 11.9064
17 2 1 -7.93944 -19.5606 11.2507
18 2 1 -6.86598 -19.6662 12.196
19 2 1 -6.62281 -20.983 12.623
29 2 2 -5.96923 -19.0302 12.09
30 2 2 -5.886 -21.1197 13.427
1 1 1 19.2006 6.95637 15.0296
2 1 1 19.4144 8.22466 14.5559
3 1 1 20.7769 8.6796 14.1635
7 1 2 18.3034 6.46077 15.1983
8 1 2 18.5031 8.79452 14.3385
5 1 4 21.1022 8.56212 12.7928
10 1 2 21.2449 7.58836 12.4286
9 1 2 21.5595 9.36537 12.2775
4 1 3 21.6922 8.9043 15.0206
59 4 1 7.66139 21.8658 10.3232
68 4 2 3.82117 17.3481 11.3023
54 4 1 5.14229 18.3087 9.84906
53 4 1 3.83562 18.1824 10.569
56 4 3 6.30664 18.4871 10.6412
57 4 1 7.24281 19.4859 10.4298
58 4 1 6.7464 20.7971 10.4314
60 4 1 8.99444 21.6812 10.8494
62 4 1 8.53221 19.2918 10.9733
66 4 2 2.91721 18.1094 9.88036
67 4 2 3.6472 19.1414 11.1088
63 4 1 9.20243 17.9366 11.1899
61 4 1 9.45224 20.3396 10.8507
64 4 3 9.36986 17.1671 10.2077
65 4 3 10.0274 17.8419 12.3191
72 4 2 10.3344 20.1999 11.4218
73 4 2 9.66871 18.2108 13.1705
71 4 2 9.7294 22.5318 10.9232
6 1 2 20.1235 6.33873 15.1517
ITEM: TIMESTEP
2800
ITEM: NUMBER OF ATOMS
115
ITEM: BOX BOUNDS pp pp pp
-2.8628399999999999e+01 2.8628399999999999e+01
-2.8628399999999999e+01 2.8628399999999999e+01
-2.8628399999999999e+01 2.8628399999999999e+01
ITEM: ATOMS id mol type x y z
74 5 1 13.0989 -12.7082 -12.7715
75 5 1 13.5728 -11.3361 -12.7703
76 5 3 13.4628 -10.791 -13.9408
77 5 3 14.7123 -11.0913 -12.0672
78 5 1 15.3395 -9.84398 -11.8916
87 5 2 12.1935 -12.8212 -13.3497
88 5 2 12.9393 -13.0091 -11.718
89 5 2 13.9171 -13.4044 -13.2637
83 5 1 16.7508 -9.79254 -11.5453
84 5 1 17.6728 -10.9295 -11.6149
85 5 3 17.2515 -12.0717 -11.2868
86 5 3 18.9386 -10.7933 -11.1346
94 5 2 19.1288 -10.6745 -10.174
79 5 1 14.5613 -8.79147 -11.4298
80 5 1 15.1687 -7.52917 -11.4559
90 5 2 13.5179 -8.81956 -11.6038
91 5 2 14.5357 -6.75981 -11.0333
81 5 1 16.5325 -7.44014 -11.0907
82 5 1 17.2542 -8.46922 -11.7216
92 5 2 17.0222 -6.51869 -10.9846
93 5 2 17.5794 -8.29813 -12.6872
97 6 3 16.8443 18.0909 -9.87074
110 6 2 15.9186 16.3426 -8.03196
95 6 1 15.4037 17.3044 -8.22829
108 6 2 14.6421 17.0818 -9.04107
109 6 2 14.791 17.524 -7.29772
96 6 1 16.4263 18.2595 -8.68434
98 6 3 17.4829 18.4991 -7.7359
99 6 1 18.4768 19.5035 -7.88732
100 6 1 18.022 20.725 -8.5241
101 6 1 19.0055 21.7038 -8.57266
102 6 1 19.8409 21.8504 -7.45025
103 6 1 20.3903 20.6399 -6.95281
104 6 1 19.4731 19.5991 -6.84697
105 6 1 20.0614 18.3039 -6.37278
106 6 3 19.2103 17.435 -5.96802
107 6 3 21.237 18.3009 -5.72528
111 6 2 17.3881 20.7283 -9.35681
114 6 2 21.1443 20.8129 -6.1951
115 6 2 21.7368 17.424 -5.48587
112 6 2 18.7395 22.6475 -9.08565
113 6 2 20.549 22.6402 -7.59619
32 3 1 15.4783 -6.22432 6.79983
45 3 2 14.4438 -6.2212 6.4552
46 3 2 15.5536 -5.6563 7.76168
47 3 2 15.808 -7.27234 6.98156
33 3 1 16.5042 -5.47459 5.9858
34 3 3 16.5264 -5.71715 4.73116
35 3 3 17.7549 -5.24275 6.63029
36 3 1 18.6185 -4.0854 6.44043
41 3 1 19.9951 -4.21441 6.81336
42 3 1 20.7313 -5.51133 6.69866
43 3 3 20.5786 -6.19483 5.6362
44 3 3 21.7259 -5.83942 7.71
52 3 2 21.9819 -5.2308 8.54319
37 3 1 18.026 -2.80023 6.3511
38 3 1 18.8983 -1.71236 6.28737
39 3 1 20.2115 -1.84532 6.74268
40 3 1 20.8641 -3.10658 6.72754
48 3 2 17.1581 -2.6624 5.77881
49 3 2 18.5207 -0.681268 6.12984
50 3 2 20.8354 -0.994388 6.63704
51 3 2 21.7256 -3.09047 7.39542
55 4 3 5.33884 17.4338 8.97267
69 4 2 5.83863 21.066 10.0009
70 4 2 7.44371 22.9031 9.95059
11 2 1 -12.219 -23.4183 12.486
12 2 1 -11.1466 -22.9104 11.744
13 2 3 -10.9906 -23.4327 10.6208
14 2 3 -9.93176 -22.4667 12.4157
24 2 2 -13.186 -23.5262 11.8852
25 2 2 -12.4119 -22.7692 13.3665
26 2 2 -11.9386 -24.4348 12.8079
21 2 1 -7.21594 -23.2759 13.2688
22 2 3 -6.72693 -24.0625 12.4044
23 2 3 -6.9445 -23.5589 14.5783
31 2 2 -6.55773 -22.9353 15.1933
20 2 1 -7.68393 -21.8755 12.9282
27 2 2 -9.73339 -20.5208 10.4611
16 2 1 -9.01823 -20.4588 11.3417
28 2 2 -8.14849 -18.6081 10.8762
15 2 1 -8.82535 -21.7587 12.0203
17 2 1 -7.93429 -19.5604 11.2698
18 2 1 -6.9133 -19.7356 12.201
19 2 1 -6.56518 -21.0299 12.6708
29 2 2 -6.08594 -19.0845 12.0915
30 2 2 -5.72047 -21.002 13.3311
1 1 1 19.2149 6.94031 14.9413
2 1 1 19.478 8.16793 14.5838
3 1 1 20.8171 8.67426 14.2554
7 1 2 18.2185 6.64873 15.2243
8 1 2 18.6355 8.83314 14.5425
5 1 4 21.0566 8.70613 12.8186
10 1 2 20.9553 7.87915 12.2848
9 1 2 21.6589 9.45594 12.3985
4 1 3 21.7414 8.90322 15.0509
59 4 1 7.74434 21.8077 10.1216
68 4 2 3.7126 17.163 11.273
54 4 1 5.15656 18.2063 9.98997
53 4 1 3.83848 18.1412 10.6555
56 4 3 6.33067 18.4504 10.7018
57 4 1 7.33368 19.4179 10.4161
58 4 1 6.83438 20.8082 10.4172
60 4 1 8.91978 21.7199 10.8362
62 4 1 8.63372 19.2571 11.0674
66 4 2 3.00641 18.1805 9.9709
67 4 2 3.68268 18.9899 11.4092
63 4 1 9.14475 17.8569 11.2308
61 4 1 9.48557 20.4328 10.8934
64 4 3 9.50378 17.2433 10.1757
65 4 3 9.93363 17.6791 12.318
72 4 2 10.4821 20.4036 11.3255
73 4 2 9.68283 18.1075 13.2447
71 4 2 9.61458 22.5671 10.62
6 1 2 19.9913 6.1246 15.0881
ITEM: TIMESTEP
2820
ITEM: NUMBER OF ATOMS
115
ITEM: BOX BOUNDS pp pp pp
-2.8628399999999999e+01 2.8628399999999999e+01
-2.8628399999999999e+01 2.8628399999999999e+01
-2.8628399999999999e+01 2.8628399999999999e+01
ITEM: ATOMS id mol type x y z
74 5 1 13.0046 -12.7908 -12.836
75 5 1 13.5854 -11.3175 -12.7608
76 5 3 13.5995 -10.8066 -13.9296
77 5 3 14.6898 -11.101 -12.0478
78 5 1 15.3554 -9.81605 -11.9078
87 5 2 12.0061 -12.7206 -13.2572
88 5 2 12.9759 -13.2843 -11.7941
89 5 2 13.5337 -13.4684 -13.5024
83 5 1 16.7485 -9.80453 -11.4594
84 5 1 17.6389 -10.9973 -11.584
85 5 3 17.1918 -12.1259 -11.1984
86 5 3 19.0014 -10.7658 -11.1732
94 5 2 19.205 -10.3515 -10.2756
79 5 1 14.5568 -8.71253 -11.3452
80 5 1 15.1183 -7.45106 -11.3993
90 5 2 13.4534 -8.77291 -11.4315
91 5 2 14.4783 -6.62646 -11.0501
81 5 1 16.5154 -7.45846 -11.1548
82 5 1 17.29 -8.48205 -11.7447
92 5 2 17.0193 -6.53439 -11.1049
93 5 2 17.6733 -8.37826 -12.7396
97 6 3 16.7604 18.2639 -9.92687
110 6 2 15.8873 16.2599 -8.22752
95 6 1 15.5059 17.2891 -8.28947
108 6 2 14.6098 17.2865 -9.00417
109 6 2 15.1125 17.4968 -7.26109
96 6 1 16.5148 18.2359 -8.7327
98 6 3 17.4948 18.5487 -7.79933
99 6 1 18.4545 19.5096 -7.93553
100 6 1 18.1043 20.7847 -8.5402
101 6 1 19.0404 21.8526 -8.60629
102 6 1 19.8958 21.9765 -7.54318
103 6 1 20.2526 20.7744 -6.84621
104 6 1 19.4105 19.6555 -6.85066
105 6 1 20.0126 18.3258 -6.30858
106 6 3 19.2116 17.4253 -5.95635
107 6 3 21.2761 18.2728 -5.72592
111 6 2 17.4618 20.755 -9.3956
114 6 2 21.1796 20.8276 -6.22814
115 6 2 21.8641 17.4816 -5.72028
112 6 2 18.6604 22.7103 -9.03769
113 6 2 20.3941 22.9215 -7.37007
32 3 1 15.4917 -6.20589 6.83997
45 3 2 14.6103 -6.21682 6.2997
46 3 2 15.3035 -5.74812 7.81017
47 3 2 15.8356 -7.23229 6.91737
33 3 1 16.524 -5.42653 6.11041
34 3 3 16.5037 -5.63189 4.82578
35 3 3 17.7408 -5.23063 6.68602
36 3 1 18.6444 -4.16038 6.41221
41 3 1 19.9751 -4.23074 6.93244
42 3 1 20.6642 -5.53761 6.80947
43 3 3 20.7165 -6.23622 5.75328
44 3 3 21.5259 -5.91198 7.81583
52 3 2 22.0063 -5.1849 8.34561
37 3 1 18.0991 -2.83844 6.33114
38 3 1 18.9925 -1.69804 6.13658
39 3 1 20.2902 -1.70812 6.71811
40 3 1 20.7905 -3.05639 6.80635
48 3 2 17.1498 -2.65957 5.78016
49 3 2 18.4581 -0.71306 6.21221
50 3 2 21.0339 -0.868535 6.47982
51 3 2 21.7696 -3.0685 7.20678
55 4 3 5.35743 17.5332 8.93338
69 4 2 6.01771 20.9238 9.75063
70 4 2 7.5078 22.893 9.91388
11 2 1 -12.1932 -23.4237 12.5099
12 2 1 -11.0868 -22.8191 11.7104
13 2 3 -10.868 -23.3768 10.5999
14 2 3 -9.93914 -22.5684 12.5006
24 2 2 -13.0432 -23.7978 11.9155
25 2 2 -12.6195 -22.6019 13.197
26 2 2 -11.7221 -24.2395 13.102
21 2 1 -7.19511 -23.2305 13.3062
22 2 3 -6.75389 -24.064 12.4534
23 2 3 -6.84635 -23.5574 14.6472
31 2 2 -6.41104 -22.8117 15.1695
20 2 1 -7.67911 -21.8803 12.9364
27 2 2 -9.87854 -20.4952 10.7344
16 2 1 -9.06744 -20.5137 11.4754
28 2 2 -8.12799 -18.7404 10.8129
15 2 1 -8.836 -21.7601 12.0545
17 2 1 -7.90829 -19.6871 11.2711
18 2 1 -6.922 -19.7381 12.2227
19 2 1 -6.57529 -21.0198 12.6332
29 2 2 -6.06035 -19.0694 11.9648
30 2 2 -5.63005 -21.2111 13.2474
1 1 1 19.1817 6.96773 14.8947
2 1 1 19.448 8.23234 14.6937
3 1 1 20.7719 8.73572 14.3015
7 1 2 18.1404 6.67553 15.1238
8 1 2 18.5531 8.91194 14.6655
5 1 4 21.1116 8.74872 12.9325
10 1 2 20.9561 7.92038 12.3073
9 1 2 21.6963 9.5575 12.6472
4 1 3 21.6757 8.83986 15.1484
59 4 1 7.82537 21.7948 10.0982
68 4 2 3.81527 17.2071 11.2868
54 4 1 5.15225 18.2053 9.9885
53 4 1 3.81241 18.1158 10.6883
56 4 3 6.33251 18.482 10.7116
57 4 1 7.3073 19.4663 10.4387
58 4 1 6.9104 20.8015 10.342
60 4 1 9.03707 21.7068 10.8719
62 4 1 8.49861 19.2915 11.0966
66 4 2 2.87558 18.3074 10.1236
67 4 2 3.88904 18.8741 11.4467
63 4 1 9.13452 17.9219 11.1973
61 4 1 9.47294 20.3484 10.9598
64 4 3 9.53938 17.2213 10.1682
65 4 3 9.89936 17.6624 12.3307
72 4 2 10.4017 20.2374 11.4728
73 4 2 9.62268 17.7723 13.2573
71 4 2 9.73774 22.4486 10.5652
6 1 2 19.9799 6.2652 15.1123
ITEM: TIMESTEP
2840
ITEM: NUMBER OF ATOMS
115
ITEM: BOX BOUNDS pp pp pp
-2.8628399999999999e+01 2.8628399999999999e+01
-2.8628399999999999e+01 2.8628399999999999e+01
-2.8628399999999999e+01 2.8628399999999999e+01
ITEM: ATOMS id mol type x y z
74 5 1 12.9864 -12.7011 -12.7438
75 5 1 13.6127 -11.4014 -12.845
76 5 3 13.6086 -10.8078 -13.9617
77 5 3 14.6513 -11.1866 -12.0589
78 5 1 15.2952 -9.89984 -11.8725
87 5 2 11.9233 -12.6199 -13.1959
88 5 2 12.9448 -12.9973 -11.6574
89 5 2 13.5418 -13.3916 -13.3451
83 5 1 16.6637 -9.85123 -11.4112
84 5 1 17.6258 -10.994 -11.456
85 5 3 17.1363 -12.1198 -11.1354
86 5 3 19.0017 -10.7932 -11.1987
94 5 2 19.3109 -10.3555 -10.2988
79 5 1 14.5268 -8.79324 -11.373
80 5 1 15.1667 -7.44811 -11.4574
90 5 2 13.518 -8.83845 -11.7113
91 5 2 14.5348 -6.71316 -11.015
81 5 1 16.5689 -7.47062 -11.1833
82 5 1 17.1884 -8.56204 -11.6472
92 5 2 17.1449 -6.52617 -11.1091
93 5 2 17.6407 -8.3972 -12.6672
97 6 3 16.7008 18.3581 -9.97884
110 6 2 15.9237 16.2211 -8.47172
95 6 1 15.5181 17.1674 -8.30798
108 6 2 14.5557 17.223 -8.83896
109 6 2 15.3415 17.233 -7.24892
96 6 1 16.4464 18.2823 -8.76259
98 6 3 17.489 18.578 -7.81224
99 6 1 18.4977 19.5809 -7.99044
100 6 1 18.1553 20.854 -8.53238
101 6 1 19.0881 21.8904 -8.62993
102 6 1 19.8911 22.0424 -7.51263
103 6 1 20.3777 20.7815 -6.92508
104 6 1 19.4806 19.6437 -6.87411
105 6 1 19.9368 18.3306 -6.21399
106 6 3 19.187 17.4117 -5.85443
107 6 3 21.2607 18.2733 -5.74659
111 6 2 17.3922 20.8937 -9.41677
114 6 2 20.8407 21.054 -5.94261
115 6 2 21.6995 17.3297 -5.65955
112 6 2 18.6749 22.7452 -9.20392
113 6 2 20.627 22.8748 -7.58136
32 3 1 15.4415 -6.2954 6.84314
45 3 2 14.4818 -6.1914 6.28465
46 3 2 15.278 -5.99159 7.89966
47 3 2 15.7616 -7.39973 6.76258
33 3 1 16.4935 -5.44973 6.18866
34 3 3 16.5264 -5.59784 4.90026
35 3 3 17.7659 -5.21754 6.6933
36 3 1 18.6712 -4.16918 6.31601
41 3 1 19.9665 -4.2991 6.96501
42 3 1 20.6304 -5.59285 6.84441
43 3 3 20.8292 -6.21319 5.76041
44 3 3 21.4204 -5.97382 7.91612
52 3 2 21.9958 -5.38627 8.40016
37 3 1 18.1746 -2.83741 6.3064
38 3 1 19.0438 -1.76585 6.13543
39 3 1 20.272 -1.86199 6.69667
40 3 1 20.8392 -3.17884 6.79196
48 3 2 17.1245 -2.58911 5.97316
49 3 2 18.5297 -0.808133 6.17768
50 3 2 20.9456 -1.02695 6.6458
51 3 2 21.8095 -3.05691 7.40557
55 4 3 5.34012 17.5117 8.87038
69 4 2 5.76696 21.0005 9.76717
70 4 2 7.53919 22.8628 10.0967
11 2 1 -12.2115 -23.3469 12.5387
12 2 1 -11.0722 -22.7601 11.6234
13 2 3 -10.8525 -23.3913 10.5882
14 2 3 -10.0117 -22.5673 12.3983
24 2 2 -13.1559 -23.5473 11.9435
25 2 2 -12.4406 -22.5421 13.295
26 2 2 -11.8377 -24.1681 13.1373
21 2 1 -7.20792 -23.2681 13.3679
22 2 3 -6.79953 -24.0563 12.4471
23 2 3 -6.7936 -23.3988 14.649
31 2 2 -6.26201 -22.7192 15.1595
20 2 1 -7.67655 -21.9766 12.9292
27 2 2 -9.80878 -20.3822 10.983
16 2 1 -9.00075 -20.5316 11.5995
28 2 2 -8.18682 -18.922 10.7481
15 2 1 -8.83452 -21.8153 12.0812
17 2 1 -7.89763 -19.8039 11.2291
18 2 1 -6.91363 -19.7754 12.1698
19 2 1 -6.59693 -21.0491 12.6187
29 2 2 -6.06109 -19.1211 12.0068
30 2 2 -5.73899 -21.0592 13.2573
1 1 1 19.1404 7.01697 14.8848
2 1 1 19.3602 8.33345 14.6972
3 1 1 20.6986 8.82874 14.3479
7 1 2 18.1829 6.67342 15.114
8 1 2 18.5104 8.93455 14.752
5 1 4 21.0796 8.92583 12.9725
10 1 2 21.2502 7.97425 12.4123
9 1 2 21.7481 9.6415 12.6915
4 1 3 21.4985 8.82938 15.3001
59 4 1 7.76915 21.8413 10.1052
68 4 2 3.92699 17.1749 11.3272
54 4 1 5.16396 18.2149 9.94549
53 4 1 3.95258 18.0821 10.6847
56 4 3 6.27302 18.4788 10.7251
57 4 1 7.27471 19.4402 10.4677
58 4 1 6.78426 20.8415 10.2557
60 4 1 9.05086 21.636 10.7106
62 4 1 8.51821 19.2693 11.1501
66 4 2 3.12596 18.1568 9.91354
67 4 2 3.80382 18.9418 11.4032
63 4 1 9.06666 17.8861 11.2324
61 4 1 9.48484 20.3348 11.0434
64 4 3 9.52236 17.2429 10.2391
65 4 3 9.89366 17.7177 12.3164
72 4 2 10.2951 20.2561 11.7442
73 4 2 9.66848 18.1949 13.1975
71 4 2 9.74277 22.5002 10.728
6 1 2 19.9509 6.36159 14.7253
ITEM: TIMESTEP
2860
ITEM: NUMBER OF ATOMS
115
ITEM: BOX BOUNDS pp pp pp
-2.8628399999999999e+01 2.8628399999999999e+01
-2.8628399999999999e+01 2.8628399999999999e+01
-2.8628399999999999e+01 2.8628399999999999e+01
ITEM: ATOMS id mol type x y z
74 5 1 12.8587 -12.6187 -12.6105
75 5 1 13.5476 -11.3618 -12.8867
76 5 3 13.6083 -10.8235 -14.0606
77 5 3 14.6688 -11.0594 -11.9265
78 5 1 15.3324 -9.88063 -11.8107
87 5 2 11.7869 -12.7601 -12.9992
88 5 2 12.925 -12.7486 -11.5396
89 5 2 13.4848 -13.4087 -13.0601
83 5 1 16.6836 -9.82243 -11.2871
84 5 1 17.6371 -10.9498 -11.4598
85 5 3 17.2076 -12.0743 -11.0788
86 5 3 18.9667 -10.8184 -11.1394
94 5 2 19.1338 -10.6638 -10.1219
79 5 1 14.501 -8.81584 -11.3799
80 5 1 15.0791 -7.54857 -11.4052
90 5 2 13.436 -8.79384 -11.7102
91 5 2 14.46 -6.77251 -11.058
81 5 1 16.4427 -7.4926 -11.2305
82 5 1 17.23 -8.55493 -11.7309
92 5 2 16.9335 -6.52424 -11.4299
93 5 2 17.4771 -8.41138 -12.7513
97 6 3 16.6245 18.3947 -9.94814
110 6 2 16.1842 16.2701 -8.47577
95 6 1 15.5626 17.1881 -8.2651
108 6 2 14.6414 17.1881 -8.83277
109 6 2 15.3049 17.2649 -7.15293
96 6 1 16.4495 18.3138 -8.72033
98 6 3 17.5752 18.5165 -7.8735
99 6 1 18.4833 19.5724 -7.90954
100 6 1 18.1063 20.8584 -8.53461
101 6 1 19.1189 21.9335 -8.583
102 6 1 19.9737 21.9054 -7.50088
103 6 1 20.3871 20.727 -6.94687
104 6 1 19.4931 19.6388 -6.84439
105 6 1 19.8938 18.349 -6.2287
106 6 3 19.137 17.4044 -5.85829
107 6 3 21.1934 18.2912 -5.67803
111 6 2 17.4667 20.889 -9.40762
114 6 2 21.1934 20.9168 -6.24289
115 6 2 21.7212 17.4918 -5.47698
112 6 2 18.7372 22.9202 -8.90733
113 6 2 20.6305 22.7488 -7.39511
32 3 1 15.4 -6.34347 6.80919
45 3 2 14.3729 -6.21014 6.35708
46 3 2 15.384 -6.16789 7.85196
47 3 2 15.6228 -7.36654 6.69539
33 3 1 16.4534 -5.46351 6.18275
34 3 3 16.4845 -5.51455 4.93632
35 3 3 17.7617 -5.16077 6.78132
36 3 1 18.6245 -4.13409 6.3228
41 3 1 19.955 -4.3426 6.91683
42 3 1 20.5248 -5.70008 6.91489
43 3 3 20.7417 -6.21265 5.76148
44 3 3 21.4652 -6.09124 7.94809
52 3 2 22.3952 -5.64036 7.95567
37 3 1 18.1238 -2.87373 6.37408
38 3 1 19.06 -1.79939 6.12555
39 3 1 20.2995 -1.95597 6.77845
40 3 1 20.9042 -3.29057 6.76294
48 3 2 17.1181 -2.74095 5.9557
49 3 2 18.6581 -0.846055 5.98161
50 3 2 20.9567 -1.07503 6.90713
51 3 2 21.9288 -3.3614 7.17573
55 4 3 5.37307 17.5566 8.86096
69 4 2 6.0432 20.9046 9.51459
70 4 2 7.51344 22.8406 9.96591
11 2 1 -12.3081 -23.2856 12.4093
12 2 1 -11.0738 -22.7901 11.614
13 2 3 -10.8703 -23.4186 10.5649
14 2 3 -9.93721 -22.4765 12.3921
24 2 2 -13.1891 -23.0644 11.7724
25 2 2 -12.3221 -22.7551 13.3643
26 2 2 -12.3146 -24.437 12.5879
21 2 1 -7.31406 -23.3042 13.3331
22 2 3 -6.7909 -24.0893 12.4712
23 2 3 -6.67172 -23.3986 14.5891
31 2 2 -5.81237 -22.9045 14.8541
20 2 1 -7.69281 -21.9305 12.8689
27 2 2 -9.98022 -20.3154 10.8077
16 2 1 -9.16097 -20.4488 11.5268
28 2 2 -8.19844 -18.686 10.8107
15 2 1 -8.79429 -21.8008 11.9816
17 2 1 -7.99594 -19.6797 11.2122
18 2 1 -6.77469 -19.8543 12.0001
19 2 1 -6.58984 -21.0891 12.65
29 2 2 -5.93748 -19.3377 11.7008
30 2 2 -5.72285 -21.1427 13.2864
1 1 1 19.2045 6.91361 14.7085
2 1 1 19.2704 8.24782 14.6622
3 1 1 20.5603 8.99992 14.484
7 1 2 18.281 6.44457 14.9524
8 1 2 18.3959 8.82962 14.7297
5 1 4 21.0328 9.03122 13.061
10 1 2 20.9612 8.19899 12.5585
9 1 2 21.8344 9.61144 12.7193
4 1 3 21.4056 8.80416 15.3883
59 4 1 7.83589 21.8012 10.0225
68 4 2 3.78724 17.1206 11.1038
54 4 1 5.19797 18.324 9.90086
53 4 1 3.86679 18.1381 10.5918
56 4 3 6.28913 18.5068 10.7021
57 4 1 7.25068 19.4274 10.4422
58 4 1 6.85254 20.7843 10.2015
60 4 1 9.0295 21.6766 10.7363
62 4 1 8.51795 19.2546 11.0607
66 4 2 2.99436 18.1692 9.88786
67 4 2 3.73501 18.8913 11.417
63 4 1 9.14796 17.8723 11.2274
61 4 1 9.44313 20.3633 10.9517
64 4 3 9.5148 17.2504 10.223
65 4 3 9.9201 17.7642 12.376
72 4 2 10.3192 20.3183 11.6136
73 4 2 9.61867 18.1962 13.2837
71 4 2 9.7895 22.4146 10.5441
6 1 2 20.0236 6.303 14.459
ITEM: TIMESTEP
2880
ITEM: NUMBER OF ATOMS
115
ITEM: BOX BOUNDS pp pp pp
-2.8628399999999999e+01 2.8628399999999999e+01
-2.8628399999999999e+01 2.8628399999999999e+01
-2.8628399999999999e+01 2.8628399999999999e+01
ITEM: ATOMS id mol type x y z
74 5 1 12.8647 -12.5925 -12.5327
75 5 1 13.5823 -11.2952 -12.8258
76 5 3 13.6702 -10.8955 -14.01
77 5 3 14.6069 -11.0614 -11.924
78 5 1 15.285 -9.86404 -11.734
87 5 2 11.9121 -12.3686 -12.959
88 5 2 12.7385 -12.7626 -11.4262
89 5 2 13.352 -13.4532 -12.9951
83 5 1 16.6915 -9.80959 -11.3691
84 5 1 17.6223 -10.9676 -11.4886
85 5 3 17.1816 -12.065 -11.135
86 5 3 18.9865 -10.7749 -11.0688
94 5 2 19.1053 -10.6687 -10.0637
79 5 1 14.4712 -8.81906 -11.3776
80 5 1 15.0567 -7.56314 -11.4123
90 5 2 13.4331 -8.90295 -11.6579
91 5 2 14.4366 -6.77896 -10.9109
81 5 1 16.3983 -7.51263 -11.2621
82 5 1 17.1882 -8.57237 -11.7267
92 5 2 16.9386 -6.66655 -11.3524
93 5 2 17.5667 -8.45491 -12.7235
97 6 3 16.6403 18.4489 -9.87912
110 6 2 16.1885 16.2504 -8.29348
95 6 1 15.5193 17.2113 -8.20786
108 6 2 14.5878 17.1876 -8.8622
109 6 2 15.1742 17.4028 -7.14963
96 6 1 16.4151 18.307 -8.6598
98 6 3 17.5627 18.5433 -7.83127
99 6 1 18.5121 19.5683 -7.89205
100 6 1 18.1356 20.8681 -8.44921
101 6 1 19.0867 21.8806 -8.54561
102 6 1 20.0326 21.8779 -7.4952
103 6 1 20.4103 20.599 -7.00786
104 6 1 19.4315 19.6006 -6.78802
105 6 1 19.9736 18.259 -6.33768
106 6 3 19.2012 17.4537 -5.74199
107 6 3 21.1926 18.2701 -5.60438
111 6 2 17.4383 20.8846 -9.28751
114 6 2 21.1665 20.6842 -6.25195
115 6 2 21.7993 17.4642 -5.54888
112 6 2 18.7267 22.8159 -8.95867
113 6 2 20.8265 22.6088 -7.61543
32 3 1 15.4645 -6.31921 6.77635
45 3 2 14.4689 -6.15493 6.35277
46 3 2 15.5042 -6.33842 7.89832
47 3 2 15.8048 -7.35499 6.45766
33 3 1 16.3824 -5.3203 6.2044
34 3 3 16.4599 -5.44572 4.97185
35 3 3 17.5993 -5.20088 6.82771
36 3 1 18.5589 -4.20785 6.49685
41 3 1 19.9308 -4.38669 7.00332
42 3 1 20.5055 -5.7574 6.99962
43 3 3 20.6741 -6.34174 5.86958
44 3 3 21.4504 -6.12674 7.87346
52 3 2 22.4355 -6.19999 7.52233
37 3 1 18.101 -2.83628 6.44155
38 3 1 19.1119 -1.87619 6.13238
39 3 1 20.3084 -2.04547 6.71434
40 3 1 20.8579 -3.34427 6.68607
48 3 2 17.1643 -2.72023 5.92363
49 3 2 18.7843 -0.923634 6.0332
50 3 2 21.0831 -1.34201 6.44024
51 3 2 21.7838 -3.35834 7.08285
55 4 3 5.31203 17.5962 8.80058
69 4 2 5.90651 20.898 9.77563
70 4 2 7.43098 22.751 9.81463
11 2 1 -12.302 -23.2776 12.2749
12 2 1 -11.092 -22.8295 11.6133
13 2 3 -10.8951 -23.4118 10.5246
14 2 3 -9.94876 -22.5029 12.3563
24 2 2 -13.0969 -23.2915 11.5017
25 2 2 -12.5529 -22.6573 13.1124
26 2 2 -12.1401 -24.3024 12.6044
21 2 1 -7.31098 -23.2537 13.365
22 2 3 -6.83683 -24.0965 12.5608
23 2 3 -6.63469 -23.43 14.6076
31 2 2 -5.56858 -23.431 14.6483
20 2 1 -7.67989 -21.8448 12.9362
27 2 2 -9.90769 -20.1753 10.8237
16 2 1 -9.04241 -20.4538 11.4437
28 2 2 -8.19495 -18.5775 11.0532
15 2 1 -8.79319 -21.7379 12.0229
17 2 1 -7.95166 -19.6263 11.2124
18 2 1 -6.79096 -19.868 11.9203
19 2 1 -6.57878 -21.0801 12.644
29 2 2 -5.90541 -19.4215 11.4457
30 2 2 -5.74832 -21.1292 13.2914
1 1 1 19.2672 6.87168 14.6863
2 1 1 19.2624 8.2051 14.7747
3 1 1 20.5028 8.98342 14.5241
7 1 2 18.2892 6.34507 14.7122
8 1 2 18.3779 8.74874 14.9801
5 1 4 21.0612 9.08473 13.1807
10 1 2 21.1837 8.24166 12.5992
9 1 2 21.6084 9.93171 12.9651
4 1 3 21.3435 8.85585 15.4435
59 4 1 7.80782 21.7513 9.97152
68 4 2 3.88038 16.951 11.0595
54 4 1 5.12725 18.2597 9.87282
53 4 1 3.86097 18.0009 10.5105
56 4 3 6.2612 18.4773 10.6778
57 4 1 7.33675 19.4312 10.3614
58 4 1 6.88584 20.7742 10.1731
60 4 1 8.99322 21.6157 10.7526
62 4 1 8.55888 19.2416 11.0718
66 4 2 2.97522 17.9383 9.83516
67 4 2 3.63027 18.8211 11.1976
63 4 1 9.12466 17.824 11.2007
61 4 1 9.53642 20.2865 10.8719
64 4 3 9.57997 17.2261 10.2004
65 4 3 9.86178 17.756 12.3588
72 4 2 10.3949 20.245 11.5254
73 4 2 9.61184 17.9492 13.3183
71 4 2 9.70782 22.39 10.5793
6 1 2 20.1564 6.3292 14.4498
ITEM: TIMESTEP
2900
ITEM: NUMBER OF ATOMS
115
ITEM: BOX BOUNDS pp pp pp
-2.8628399999999999e+01 2.8628399999999999e+01
-2.8628399999999999e+01 2.8628399999999999e+01
-2.8628399999999999e+01 2.8628399999999999e+01
ITEM: ATOMS id mol type x y z
74 5 1 12.8959 -12.6306 -12.6024
75 5 1 13.5955 -11.3362 -12.7049
76 5 3 13.7463 -10.9934 -13.8976
77 5 3 14.6873 -11.1874 -11.8895
78 5 1 15.2435 -9.90072 -11.8556
87 5 2 11.8272 -12.6415 -13.0697
88 5 2 12.769 -12.9145 -11.572
89 5 2 13.5104 -13.4771 -12.982
83 5 1 16.6202 -9.82942 -11.3855
84 5 1 17.5921 -11.0012 -11.4104
85 5 3 17.1256 -12.177 -11.2629
86 5 3 18.9699 -10.726 -11.1072
94 5 2 19.2931 -10.6513 -10.19
79 5 1 14.3975 -8.836 -11.3724
80 5 1 15.0135 -7.55081 -11.3595
90 5 2 13.427 -8.81204 -11.7193
91 5 2 14.4095 -6.79186 -10.9064
81 5 1 16.3253 -7.47972 -11.1051
82 5 1 17.1192 -8.56714 -11.6871
92 5 2 16.8554 -6.56904 -11.0283
93 5 2 17.4669 -8.419 -12.7264
97 6 3 16.6042 18.3856 -9.86881
110 6 2 16.0928 16.3327 -8.19177
95 6 1 15.4977 17.2466 -8.17998
108 6 2 14.6062 17.2986 -8.77912
109 6 2 15.0935 17.5186 -7.21983
96 6 1 16.4156 18.4117 -8.65171
98 6 3 17.4638 18.5968 -7.75579
99 6 1 18.4181 19.5872 -7.84442
100 6 1 18.0168 20.8559 -8.30761
101 6 1 19.1128 21.7505 -8.51088
102 6 1 20.049 21.8541 -7.46622
103 6 1 20.3697 20.5953 -6.92986
104 6 1 19.4074 19.5544 -6.81816
105 6 1 20.0659 18.2875 -6.33799
106 6 3 19.3466 17.489 -5.7137
107 6 3 21.1781 18.2715 -5.58694
111 6 2 17.3539 20.8211 -9.2136
114 6 2 21.2367 20.6415 -6.24349
115 6 2 21.5768 17.4706 -5.04863
112 6 2 18.8486 22.6717 -8.96721
113 6 2 20.8244 22.508 -7.59683
32 3 1 15.4758 -6.34624 6.80914
45 3 2 14.6023 -6.4231 6.17102
46 3 2 15.2673 -6.05509 7.94187
47 3 2 16.0185 -7.32777 6.83481
33 3 1 16.3648 -5.36431 6.1183
34 3 3 16.3585 -5.37541 4.85566
35 3 3 17.5859 -5.14056 6.85117
36 3 1 18.586 -4.23338 6.5412
41 3 1 19.9224 -4.44675 7.01653
42 3 1 20.4592 -5.85934 7.01794
43 3 3 20.7028 -6.37169 5.87033
44 3 3 21.5367 -6.16649 7.82103
52 3 2 22.464 -6.17247 7.56256
37 3 1 18.1538 -2.82946 6.52626
38 3 1 19.1033 -1.94107 6.07328
39 3 1 20.3793 -2.01107 6.63921
40 3 1 20.8462 -3.38831 6.75455
48 3 2 17.1326 -2.58262 6.1374
49 3 2 18.6976 -1.01658 6.06028
50 3 2 21.0805 -1.23199 6.4825
51 3 2 21.7915 -3.44345 7.27071
55 4 3 5.20354 17.5815 8.77599
69 4 2 6.09263 20.8696 9.4822
70 4 2 7.63525 22.8469 10.0734
11 2 1 -12.2609 -23.3119 12.2666
12 2 1 -11.0985 -22.7903 11.4908
13 2 3 -10.8707 -23.349 10.4051
14 2 3 -9.94119 -22.5024 12.3578
24 2 2 -13.2084 -23.5768 11.639
25 2 2 -12.5743 -22.5759 13.0402
26 2 2 -11.9863 -24.2272 12.7071
21 2 1 -7.24304 -23.3133 13.4209
22 2 3 -6.87707 -24.1024 12.5128
23 2 3 -6.68273 -23.3806 14.6916
31 2 2 -5.75384 -23.167 14.7751
20 2 1 -7.68777 -21.9499 12.9703
27 2 2 -9.84183 -20.4705 10.7982
16 2 1 -9.09562 -20.4922 11.5158
28 2 2 -8.22113 -18.6875 10.8505
15 2 1 -8.81265 -21.7669 12.0265
17 2 1 -8.02513 -19.6258 11.2426
18 2 1 -6.80631 -19.8071 11.893
19 2 1 -6.58007 -21.0316 12.548
29 2 2 -5.89929 -19.404 11.5034
30 2 2 -5.75917 -20.9634 13.1974
1 1 1 19.1541 6.85353 14.7678
2 1 1 19.2728 8.18779 14.8203
3 1 1 20.5421 8.88394 14.5166
7 1 2 18.2624 6.40601 15.0647
8 1 2 18.5385 8.80302 15.2428
5 1 4 21.013 9.07614 13.1799
10 1 2 21.3956 8.18053 12.615
9 1 2 21.5379 9.94999 13.0614
4 1 3 21.422 8.8419 15.4287
59 4 1 7.90423 21.7486 9.98402
68 4 2 4.04512 16.9636 11.1206
54 4 1 5.15739 18.2269 9.85674
53 4 1 3.908 17.9462 10.5808
56 4 3 6.27148 18.542 10.5869
57 4 1 7.27103 19.4543 10.3394
58 4 1 6.90309 20.8248 10.2018
60 4 1 9.07226 21.5694 10.7013
62 4 1 8.52033 19.218 10.977
66 4 2 3.02982 17.7865 9.93659
67 4 2 3.58264 18.8073 11.258
63 4 1 9.15523 17.8661 11.1844
61 4 1 9.49403 20.262 10.8302
64 4 3 9.6093 17.3109 10.1703
65 4 3 9.86849 17.666 12.3238
72 4 2 10.4021 20.1571 11.2597
73 4 2 9.44346 17.6328 13.2425
71 4 2 9.79303 22.3694 10.6545
6 1 2 19.973 6.22757 14.3677
ITEM: TIMESTEP
2920
ITEM: NUMBER OF ATOMS
115
ITEM: BOX BOUNDS pp pp pp
-2.8628399999999999e+01 2.8628399999999999e+01
-2.8628399999999999e+01 2.8628399999999999e+01
-2.8628399999999999e+01 2.8628399999999999e+01
ITEM: ATOMS id mol type x y z
74 5 1 12.8912 -12.7463 -12.5403
75 5 1 13.6087 -11.4334 -12.6852
76 5 3 13.7809 -11.0134 -13.8518
77 5 3 14.648 -11.1697 -11.7849
78 5 1 15.2732 -9.9767 -11.8721
87 5 2 11.9999 -12.7796 -13.1652
88 5 2 12.5274 -12.9393 -11.5304
89 5 2 13.4598 -13.5827 -12.9379
83 5 1 16.6224 -9.88554 -11.3682
84 5 1 17.5079 -11.0809 -11.4306
85 5 3 17.1738 -12.2812 -11.2523
86 5 3 18.7769 -10.7536 -11.0659
94 5 2 19.0288 -10.5937 -10.1425
79 5 1 14.4678 -8.8488 -11.5007
80 5 1 14.9948 -7.56688 -11.3553
90 5 2 13.4131 -8.83013 -11.775
91 5 2 14.3357 -6.90885 -10.8921
81 5 1 16.3703 -7.5431 -11.0517
82 5 1 17.1223 -8.53128 -11.6192
92 5 2 16.8874 -6.5929 -10.9164
93 5 2 17.387 -8.31359 -12.629
97 6 3 16.5157 18.489 -9.86472
110 6 2 16.2028 16.3908 -8.1516
95 6 1 15.4436 17.221 -8.22443
108 6 2 14.5323 17.0235 -8.89564
109 6 2 15.0886 17.4943 -7.17018
96 6 1 16.2748 18.4184 -8.64625
98 6 3 17.3597 18.6763 -7.71383
99 6 1 18.4048 19.5985 -7.80959
100 6 1 18.0362 20.8641 -8.34006
101 6 1 19.0522 21.7579 -8.46064
102 6 1 19.9587 21.838 -7.4221
103 6 1 20.4022 20.6156 -6.88467
104 6 1 19.4509 19.5675 -6.81529
105 6 1 20.0356 18.2513 -6.26932
106 6 3 19.1886 17.4409 -5.7278
107 6 3 21.2372 18.3462 -5.5233
111 6 2 17.284 20.8159 -9.16348
114 6 2 21.009 20.8485 -5.96564
115 6 2 21.7663 17.4995 -5.17097
112 6 2 18.7304 22.7187 -8.90218
113 6 2 20.7247 22.6205 -7.44954
32 3 1 15.3657 -6.31527 6.78279
45 3 2 14.5545 -6.51075 6.00942
46 3 2 15.0213 -5.82778 7.68551
47 3 2 15.7981 -7.26309 7.04279
33 3 1 16.3581 -5.39073 6.13839
34 3 3 16.374 -5.28204 4.89321
35 3 3 17.5674 -5.14334 6.88237
36 3 1 18.6288 -4.17298 6.60783
41 3 1 19.9735 -4.44508 7.04913
42 3 1 20.5553 -5.86585 6.93559
43 3 3 20.6846 -6.4175 5.77651
44 3 3 21.564 -6.24513 7.79001
52 3 2 22.5354 -5.95119 7.58819
37 3 1 18.1992 -2.83976 6.44395
38 3 1 19.1454 -1.90036 6.08948
39 3 1 20.3617 -2.01824 6.72899
40 3 1 20.8609 -3.31153 6.83817
48 3 2 17.185 -2.58031 6.20579
49 3 2 18.8111 -0.804874 5.96429
50 3 2 21.0696 -1.2546 6.46072
51 3 2 21.8513 -3.34413 7.37402
55 4 3 5.21446 17.5525 8.69019
69 4 2 5.9167 21.0626 9.78495
70 4 2 7.83787 22.7468 9.58976
11 2 1 -12.2049 -23.3677 12.1788
12 2 1 -11.0531 -22.8119 11.4163
13 2 3 -10.7695 -23.2768 10.308
14 2 3 -9.97214 -22.5803 12.2577
24 2 2 -13.0823 -23.4998 11.5486
25 2 2 -12.5758 -22.6885 13.0355
26 2 2 -12.0433 -24.3386 12.5562
21 2 1 -7.2478 -23.2526 13.4166
22 2 3 -6.92438 -24.2094 12.6126
23 2 3 -6.61365 -23.3455 14.7
31 2 2 -5.58659 -23.1291 14.9193
20 2 1 -7.69562 -21.9031 12.8703
27 2 2 -10.157 -20.2219 11.3
16 2 1 -9.13452 -20.4487 11.6295
28 2 2 -8.34227 -18.6238 10.8679
15 2 1 -8.84669 -21.7621 12.0179
17 2 1 -8.06277 -19.6229 11.2284
18 2 1 -6.89019 -19.7858 12.006
19 2 1 -6.59496 -21.0268 12.5711
29 2 2 -5.98768 -19.3061 11.608
30 2 2 -5.55675 -21.189 13.0194
1 1 1 19.025 6.9552 14.7083
2 1 1 19.3047 8.21286 14.8607
3 1 1 20.6655 8.8576 14.5378
7 1 2 18.0704 6.58409 15.0408
8 1 2 18.6012 8.93856 15.2959
5 1 4 21.0458 9.12338 13.1559
10 1 2 21.1118 8.309 12.5859
9 1 2 21.7233 9.87127 12.9452
4 1 3 21.5135 8.78865 15.4284
59 4 1 7.96388 21.8022 9.91184
68 4 2 3.97437 16.9338 10.9644
54 4 1 5.08334 18.2679 9.71231
53 4 1 3.89623 17.9005 10.606
56 4 3 6.25536 18.5084 10.5559
57 4 1 7.35083 19.3979 10.2083
58 4 1 6.92218 20.8256 10.0887
60 4 1 9.12878 21.5248 10.6554
62 4 1 8.55618 19.248 11.0162
66 4 2 2.97459 17.9587 10.0974
67 4 2 3.80046 18.6204 11.4177
63 4 1 9.13073 17.8807 11.104
61 4 1 9.50496 20.2119 10.7123
64 4 3 9.62123 17.2849 10.1187
65 4 3 9.8402 17.5535 12.278
72 4 2 10.4951 20.1177 11.232
73 4 2 9.33171 17.7638 13.1998
71 4 2 9.93399 22.2008 10.4653
6 1 2 19.6814 6.21042 14.2819
ITEM: TIMESTEP
2940
ITEM: NUMBER OF ATOMS
115
ITEM: BOX BOUNDS pp pp pp
-2.8628399999999999e+01 2.8628399999999999e+01
-2.8628399999999999e+01 2.8628399999999999e+01
-2.8628399999999999e+01 2.8628399999999999e+01
ITEM: ATOMS id mol type x y z
74 5 1 12.8106 -12.7889 -12.5271
75 5 1 13.5331 -11.5104 -12.7458
76 5 3 13.7339 -11.1488 -13.9396
77 5 3 14.5855 -11.2337 -11.8451
78 5 1 15.2052 -9.97931 -11.8716
87 5 2 11.9058 -12.7276 -13.0913
88 5 2 12.5505 -12.9834 -11.4124
89 5 2 13.4087 -13.6368 -13.021
83 5 1 16.5794 -9.86826 -11.4259
84 5 1 17.5458 -11.0428 -11.563
85 5 3 17.189 -12.2331 -11.2321
86 5 3 18.8843 -10.8261 -11.0196
94 5 2 19.0258 -10.5124 -10.01
79 5 1 14.3973 -8.89133 -11.4627
80 5 1 15.0317 -7.62656 -11.4066
90 5 2 13.3424 -8.92488 -11.877
91 5 2 14.3708 -6.76639 -11.2062
81 5 1 16.3869 -7.49798 -11.0098
82 5 1 17.147 -8.61142 -11.5487
92 5 2 16.8749 -6.55446 -11.028
93 5 2 17.6463 -8.31843 -12.4747
97 6 3 16.4121 18.4998 -9.85623
110 6 2 16.2449 16.2975 -8.50068
95 6 1 15.497 17.0879 -8.25435
108 6 2 14.6192 17.0614 -8.90596
109 6 2 15.232 17.045 -7.18265
96 6 1 16.2439 18.3795 -8.60976
98 6 3 17.3192 18.652 -7.66773
99 6 1 18.4386 19.5724 -7.77503
100 6 1 18.0616 20.8419 -8.33061
101 6 1 19.0544 21.8238 -8.54069
102 6 1 19.9489 21.8559 -7.48914
103 6 1 20.4014 20.612 -6.94996
104 6 1 19.4606 19.5134 -6.76241
105 6 1 20.023 18.2792 -6.10135
106 6 3 19.1496 17.4138 -5.719
107 6 3 21.2434 18.3207 -5.41795
111 6 2 17.2678 20.8572 -9.01523
114 6 2 21.2252 20.7216 -6.25652
115 6 2 21.7879 17.4798 -5.38179
112 6 2 18.7176 22.7326 -8.94528
113 6 2 20.5885 22.7264 -7.35783
32 3 1 15.321 -6.34647 6.67725
45 3 2 14.3831 -6.4768 6.1223
46 3 2 15.0938 -6.08856 7.71075
47 3 2 15.8018 -7.41953 6.66896
33 3 1 16.2967 -5.3344 6.14428
34 3 3 16.4038 -5.20254 4.8738
35 3 3 17.5473 -5.17009 6.8224
36 3 1 18.6138 -4.23908 6.50452
41 3 1 19.9846 -4.48881 6.98676
42 3 1 20.6396 -5.83558 6.86311
43 3 3 20.7562 -6.40657 5.73721
44 3 3 21.6113 -6.23746 7.7306
52 3 2 22.5473 -5.83929 7.68814
37 3 1 18.2365 -2.86221 6.47211
38 3 1 19.1887 -1.80274 6.25766
39 3 1 20.4603 -2.00682 6.80504
40 3 1 20.9369 -3.34144 6.88122
48 3 2 17.3489 -2.63384 5.94483
49 3 2 18.8122 -0.789204 6.17679
50 3 2 21.1738 -1.21654 6.46212
51 3 2 21.9065 -3.46564 7.28983
55 4 3 5.17202 17.6028 8.78518
69 4 2 6.04373 20.9747 9.51534
70 4 2 7.50562 22.7182 9.85671
11 2 1 -12.1971 -23.3456 12.1068
12 2 1 -10.9772 -22.8396 11.3696
13 2 3 -10.8356 -23.1854 10.1633
14 2 3 -9.89857 -22.6687 12.2378
24 2 2 -13.1212 -23.2088 11.5067
25 2 2 -12.4476 -22.8435 13.0725
26 2 2 -12.0964 -24.5119 12.3588
21 2 1 -7.1876 -23.238 13.4001
22 2 3 -6.96179 -24.2217 12.6411
23 2 3 -6.56646 -23.3249 14.6685
31 2 2 -5.55707 -23.2017 14.7391
20 2 1 -7.64927 -21.957 12.8524
27 2 2 -10.0483 -20.2143 11.0867
16 2 1 -9.16967 -20.4386 11.7188
28 2 2 -8.45334 -18.6631 11.0294
15 2 1 -8.83364 -21.8147 12.0126
17 2 1 -8.04294 -19.6324 11.3486
18 2 1 -6.88794 -19.769 12.0019
19 2 1 -6.62016 -21.0502 12.5792
29 2 2 -5.98205 -19.1162 11.7402
30 2 2 -5.83339 -20.9178 13.3569
1 1 1 19.0094 7.07191 14.7433
2 1 1 19.3331 8.35779 14.8699
3 1 1 20.6969 8.84538 14.5378
7 1 2 18.0345 6.7497 15.152
8 1 2 18.5845 9.03629 15.2471
5 1 4 21.0937 9.12276 13.1889
10 1 2 21.1038 8.4225 12.5619
9 1 2 21.8737 9.88302 13.0122
4 1 3 21.5848 8.74327 15.4295
59 4 1 7.93319 21.7308 9.78852
68 4 2 3.94528 16.9055 11.1383
54 4 1 5.11289 18.2276 9.8419
53 4 1 3.92062 17.9418 10.6861
56 4 3 6.31195 18.5222 10.4733
57 4 1 7.34419 19.4596 10.2193
58 4 1 6.95386 20.8119 10.0979
60 4 1 9.07648 21.5616 10.5431
62 4 1 8.57442 19.2161 10.8927
66 4 2 2.99464 18.0774 10.0204
67 4 2 3.90333 18.6702 11.5471
63 4 1 9.12995 17.8499 11.0816
61 4 1 9.56885 20.2435 10.7958
64 4 3 9.52823 17.1932 10.1156
65 4 3 9.88491 17.5436 12.223
72 4 2 10.4606 20.1427 11.4108
73 4 2 9.56847 17.7737 13.1465
71 4 2 9.87841 22.3227 10.3985
6 1 2 19.7498 6.4058 14.3401
ITEM: TIMESTEP
2960
ITEM: NUMBER OF ATOMS
115
ITEM: BOX BOUNDS pp pp pp
-2.8628399999999999e+01 2.8628399999999999e+01
-2.8628399999999999e+01 2.8628399999999999e+01
-2.8628399999999999e+01 2.8628399999999999e+01
ITEM: ATOMS id mol type x y z
74 5 1 12.7077 -12.7687 -12.5847
75 5 1 13.4937 -11.5422 -12.8342
76 5 3 13.6967 -11.1966 -14.0113
77 5 3 14.5703 -11.2813 -11.9072
78 5 1 15.1927 -10.0163 -11.8119
87 5 2 11.6757 -12.6372 -13.1301
88 5 2 12.464 -12.7559 -11.4887
89 5 2 13.2003 -13.6914 -12.9091
83 5 1 16.6215 -9.91818 -11.5031
84 5 1 17.6214 -11.013 -11.4782
85 5 3 17.2721 -12.1811 -11.2584
86 5 3 18.8722 -10.7263 -11.0185
94 5 2 19.0035 -10.6196 -10.0442
79 5 1 14.3825 -8.82245 -11.5174
80 5 1 15.0339 -7.57827 -11.4703
90 5 2 13.389 -8.91205 -11.8992
91 5 2 14.4589 -6.76638 -10.9739
81 5 1 16.3163 -7.6442 -10.9516
82 5 1 17.1676 -8.5759 -11.5007
92 5 2 16.7381 -6.71032 -10.6028
93 5 2 17.7147 -8.19973 -12.3511
97 6 3 16.3791 18.544 -9.82646
110 6 2 16.1078 16.1285 -8.65663
95 6 1 15.6147 17.0465 -8.2464
108 6 2 14.6074 17.1612 -8.6263
109 6 2 15.55 16.9285 -7.12739
96 6 1 16.3048 18.3021 -8.61332
98 6 3 17.3672 18.5943 -7.73411
99 6 1 18.4155 19.5434 -7.79305
100 6 1 18.0598 20.8137 -8.29705
101 6 1 19.104 21.7169 -8.50056
102 6 1 19.9871 21.9108 -7.48702
103 6 1 20.4974 20.6632 -7.06778
104 6 1 19.4726 19.6113 -6.73455
105 6 1 20.0316 18.2611 -6.12709
106 6 3 19.1793 17.364 -5.64515
107 6 3 21.2001 18.2626 -5.39459
111 6 2 17.3548 20.829 -9.09108
114 6 2 21.3038 20.7963 -6.42288
115 6 2 21.6653 17.4201 -5.08582
112 6 2 18.7978 22.6702 -8.97935
113 6 2 20.8176 22.5517 -7.72906
32 3 1 15.4355 -6.37471 6.52274
45 3 2 14.4915 -6.3327 5.98676
46 3 2 15.2464 -6.43485 7.65852
47 3 2 15.9165 -7.37115 6.22286
33 3 1 16.3063 -5.27404 6.11824
34 3 3 16.4435 -5.21806 4.85338
35 3 3 17.5624 -5.1736 6.76493
36 3 1 18.6288 -4.21342 6.53578
41 3 1 20.0581 -4.45734 7.00162
42 3 1 20.5855 -5.87791 6.86072
43 3 3 20.7961 -6.41589 5.69825
44 3 3 21.6723 -6.16236 7.71208
52 3 2 22.5733 -5.78078 7.55332
37 3 1 18.2545 -2.83539 6.44405
38 3 1 19.2615 -1.82359 6.31303
39 3 1 20.506 -2.12852 6.86876
40 3 1 20.9434 -3.43303 6.80302
48 3 2 17.221 -2.49504 6.12217
49 3 2 18.8954 -0.862671 6.41996
50 3 2 21.309 -1.36203 6.71589
51 3 2 21.9481 -3.55295 7.04466
55 4 3 5.20352 17.5395 8.74594
69 4 2 5.99572 20.9856 9.62223
70 4 2 7.60118 22.768 9.52741
11 2 1 -12.2111 -23.3069 11.9948
12 2 1 -10.9889 -22.927 11.3442
13 2 3 -10.9418 -23.1403 10.1443
14 2 3 -9.82814 -22.7924 12.1795
24 2 2 -13.0601 -22.8909 11.4461
25 2 2 -12.2607 -22.8351 12.9254
26 2 2 -12.2298 -24.4024 12.1525
21 2 1 -7.31482 -23.3408 13.5132
22 2 3 -6.89469 -24.2292 12.6964
23 2 3 -6.60357 -23.3498 14.6901
31 2 2 -5.64411 -23.1555 14.7725
20 2 1 -7.62758 -21.992 12.9411
27 2 2 -9.88816 -20.4073 10.9188
16 2 1 -9.0911 -20.5167 11.6162
28 2 2 -8.39497 -18.5769 11.1254
15 2 1 -8.75548 -21.8563 11.9869
17 2 1 -8.04137 -19.5869 11.3765
18 2 1 -6.86901 -19.8054 12.0588
19 2 1 -6.5698 -21.05 12.7049
29 2 2 -6.05724 -19.231 11.8108
30 2 2 -5.65835 -21.06 13.1774
1 1 1 18.9165 7.12826 14.7498
2 1 1 19.3575 8.35006 14.8911
3 1 1 20.7097 8.88725 14.5506
7 1 2 17.9015 6.88519 15.0536
8 1 2 18.6079 9.00627 15.3499
5 1 4 21.0813 9.10388 13.2187
10 1 2 21.127 8.29219 12.5136
9 1 2 21.6739 9.92621 12.9868
4 1 3 21.6012 8.66582 15.4232
59 4 1 7.93955 21.7395 9.7898
68 4 2 4.24889 16.9697 11.2882
54 4 1 5.11114 18.1523 9.86578
53 4 1 3.87335 17.8912 10.7665
56 4 3 6.37796 18.4885 10.5206
57 4 1 7.36546 19.4492 10.2011
58 4 1 6.91878 20.815 10.0918
60 4 1 9.15199 21.6083 10.5242
62 4 1 8.62292 19.2211 10.8646
66 4 2 2.99922 17.6783 10.1515
67 4 2 3.59035 18.6281 11.5005
63 4 1 9.22006 17.8303 11.0254
61 4 1 9.56131 20.3467 10.795
64 4 3 9.38234 17.1539 9.99256
65 4 3 9.96349 17.6207 12.2455
72 4 2 10.4602 20.2989 11.3758
73 4 2 9.52856 17.6634 13.1521
71 4 2 9.92274 22.3374 10.3225
6 1 2 19.5841 6.38116 14.3555
ITEM: TIMESTEP
2980
ITEM: NUMBER OF ATOMS
115
ITEM: BOX BOUNDS pp pp pp
-2.8628399999999999e+01 2.8628399999999999e+01
-2.8628399999999999e+01 2.8628399999999999e+01
-2.8628399999999999e+01 2.8628399999999999e+01
ITEM: ATOMS id mol type x y z
74 5 1 12.751 -12.8071 -12.5649
75 5 1 13.4655 -11.51 -12.8518
76 5 3 13.6359 -11.2562 -14.0601
77 5 3 14.5557 -11.2627 -11.9156
78 5 1 15.2711 -10.0457 -11.9191
87 5 2 11.8899 -12.852 -13.1958
88 5 2 12.4355 -12.8068 -11.5366
89 5 2 13.4538 -13.6661 -12.7074
83 5 1 16.642 -9.90475 -11.4279
84 5 1 17.6357 -11.0447 -11.5412
85 5 3 17.2499 -12.229 -11.3492
86 5 3 18.9438 -10.7081 -11.0814
94 5 2 19.1291 -10.6192 -10.073
79 5 1 14.509 -8.86821 -11.7056
80 5 1 15.0894 -7.65174 -11.3373
90 5 2 13.5727 -8.84985 -12.2334
91 5 2 14.3847 -6.7922 -11.067
81 5 1 16.3732 -7.68819 -10.8104
82 5 1 17.1973 -8.56674 -11.5236
92 5 2 16.8242 -6.7221 -10.556
93 5 2 17.6117 -8.16727 -12.4648
97 6 3 16.3646 18.6237 -9.8615
110 6 2 16.1514 16.0875 -8.55818
95 6 1 15.5871 16.9352 -8.23134
108 6 2 14.5908 16.9107 -8.73088
109 6 2 15.4683 16.9013 -7.10898
96 6 1 16.3663 18.1479 -8.68785
98 6 3 17.506 18.4584 -7.80982
99 6 1 18.4844 19.513 -7.78704
100 6 1 18.0003 20.8104 -8.21969
101 6 1 19.0227 21.8236 -8.39209
102 6 1 20.1565 21.8177 -7.55162
103 6 1 20.5218 20.513 -6.99262
104 6 1 19.5105 19.4994 -6.78756
105 6 1 20.0096 18.3065 -6.09543
106 6 3 19.2269 17.3988 -5.63117
107 6 3 21.2015 18.3055 -5.41482
111 6 2 17.2026 20.8606 -8.97985
114 6 2 21.4749 20.5703 -6.42593
115 6 2 21.638 17.4312 -5.11474
112 6 2 18.708 22.8461 -8.67678
113 6 2 21.0294 22.4181 -7.68942
32 3 1 15.466 -6.47047 6.45456
45 3 2 14.5598 -6.50249 5.86708
46 3 2 15.1609 -6.30518 7.4846
47 3 2 15.9025 -7.46214 6.37235
33 3 1 16.3885 -5.33293 6.01336
34 3 3 16.5404 -5.21285 4.78461
35 3 3 17.6317 -5.22344 6.71656
36 3 1 18.6045 -4.20458 6.58294
41 3 1 19.9511 -4.54978 7.02985
42 3 1 20.626 -5.90693 6.86191
43 3 3 20.795 -6.34389 5.66695
44 3 3 21.6882 -6.19267 7.70716
52 3 2 22.5092 -5.63955 7.6691
37 3 1 18.2628 -2.81611 6.52957
38 3 1 19.2168 -1.86688 6.3472
39 3 1 20.4965 -2.15826 6.89139
40 3 1 20.9358 -3.52381 6.83279
48 3 2 17.3284 -2.57585 6.02838
49 3 2 18.8323 -0.888568 6.52893
50 3 2 21.1744 -1.3596 6.92597
51 3 2 21.8956 -3.6189 7.38214
55 4 3 5.30913 17.5708 8.75692
69 4 2 6.0023 21.0275 9.58886
70 4 2 7.56139 22.7553 9.62868
11 2 1 -12.3227 -23.3747 12.0738
12 2 1 -11.0104 -22.9005 11.3658
13 2 3 -10.7978 -23.2214 10.1516
14 2 3 -9.79377 -22.853 12.1018
24 2 2 -13.1444 -22.8905 11.4677
25 2 2 -12.3936 -23.0152 13.0941
26 2 2 -12.4112 -24.4431 12.126
21 2 1 -7.23742 -23.3133 13.5332
22 2 3 -6.81884 -24.208 12.7081
23 2 3 -6.56845 -23.334 14.7684
31 2 2 -5.58004 -23.2054 14.9068
20 2 1 -7.7503 -21.9714 12.9559
27 2 2 -10.0306 -20.416 10.9746
16 2 1 -9.0789 -20.6616 11.5578
28 2 2 -8.27525 -18.7159 11.0603
15 2 1 -8.70443 -21.9814 11.9054
17 2 1 -7.99832 -19.7326 11.3616
18 2 1 -6.8414 -19.8505 12.1307
19 2 1 -6.59429 -21.1075 12.7602
29 2 2 -6.01697 -19.3046 11.82
30 2 2 -5.76199 -21.0529 13.5207
1 1 1 18.8442 7.15047 14.7583
2 1 1 19.3365 8.3727 14.9921
3 1 1 20.7021 8.77699 14.6545
7 1 2 17.8384 6.9221 15.0147
8 1 2 18.7535 8.97956 15.6534
5 1 4 21.0261 9.1581 13.238
10 1 2 21.0492 8.40057 12.4759
9 1 2 21.5677 10.0195 13.0445
4 1 3 21.6717 8.6224 15.4436
59 4 1 7.92565 21.8046 9.80197
68 4 2 4.26619 16.8735 11.2678
54 4 1 5.1663 18.1941 9.80361
53 4 1 4.0598 17.8179 10.6873
56 4 3 6.28167 18.4932 10.4986
57 4 1 7.34362 19.4525 10.2018
58 4 1 6.96496 20.8436 10.0483
60 4 1 9.15838 21.6697 10.5191
62 4 1 8.58165 19.2439 10.9539
66 4 2 3.13946 17.8419 10.2298
67 4 2 4.04531 18.5839 11.4394
63 4 1 9.22773 17.8698 10.9212
61 4 1 9.57519 20.345 10.7584
64 4 3 9.39621 17.1431 9.9388
65 4 3 9.88497 17.5443 12.0967
72 4 2 10.4149 20.2598 11.3253
73 4 2 9.46668 17.8231 12.9616
71 4 2 10.0083 22.3651 10.3081
6 1 2 19.4122 6.32128 14.3321
ITEM: TIMESTEP
3000
ITEM: NUMBER OF ATOMS
115
ITEM: BOX BOUNDS pp pp pp
-2.8628399999999999e+01 2.8628399999999999e+01
-2.8628399999999999e+01 2.8628399999999999e+01
-2.8628399999999999e+01 2.8628399999999999e+01
ITEM: ATOMS id mol type x y z
74 5 1 12.7991 -12.72 -12.5009
75 5 1 13.5594 -11.4581 -12.8521
76 5 3 13.6943 -11.3021 -14.1088
77 5 3 14.6167 -11.1832 -12.0094
78 5 1 15.3647 -10.0329 -12.02
87 5 2 11.7424 -12.7758 -12.9129
88 5 2 12.7034 -12.7675 -11.3739
89 5 2 13.4525 -13.5848 -12.8017
83 5 1 16.6774 -9.97082 -11.4367
84 5 1 17.6247 -11.0807 -11.5879
85 5 3 17.2898 -12.2264 -11.3375
86 5 3 18.9187 -10.7104 -11.1839
94 5 2 19.2079 -10.5566 -10.2295
79 5 1 14.5302 -8.8913 -11.7493
80 5 1 15.0879 -7.65908 -11.3533
90 5 2 13.5016 -8.85095 -12.1809
91 5 2 14.4555 -6.98363 -10.8866
81 5 1 16.3777 -7.68504 -10.783
82 5 1 17.1451 -8.60692 -11.4451
92 5 2 16.8164 -6.7431 -10.505
93 5 2 17.6863 -8.3173 -12.3067
97 6 3 16.2997 18.6175 -9.74993
95 6 1 15.6287 16.8938 -8.26324
108 6 2 14.6019 16.8127 -8.85779
109 6 2 15.4409 16.8825 -7.17802
110 6 2 16.2131 16.0305 -8.59166
96 6 1 16.4085 18.1451 -8.59587
98 6 3 17.5748 18.3759 -7.85605
99 6 1 18.583 19.4303 -7.8628
100 6 1 18.1134 20.8045 -8.099
101 6 1 18.9915 21.8372 -8.27631
102 6 1 20.1115 21.8142 -7.57782
103 6 1 20.51 20.5115 -7.05157
104 6 1 19.5346 19.4946 -6.76943
105 6 1 20.0809 18.2088 -6.17837
106 6 3 19.2361 17.4311 -5.64542
107 6 3 21.1765 18.2929 -5.2762
111 6 2 17.2302 20.9723 -8.67277
114 6 2 21.3382 20.6219 -6.37382
115 6 2 21.6726 17.5023 -4.96547
112 6 2 18.5461 22.8434 -8.3738
113 6 2 20.9324 22.3606 -7.8366
32 3 1 15.5817 -6.48434 6.47892
45 3 2 14.6094 -6.57457 5.80348
46 3 2 15.2842 -6.37817 7.52508
47 3 2 16.0219 -7.46041 6.38066
33 3 1 16.4868 -5.41344 5.97291
34 3 3 16.5453 -5.21955 4.74021
35 3 3 17.6493 -5.24187 6.73812
36 3 1 18.6289 -4.21535 6.62398
41 3 1 19.9678 -4.4244 7.10019
42 3 1 20.6012 -5.82396 6.88254
43 3 3 20.7608 -6.27279 5.70396
44 3 3 21.6635 -6.16518 7.69166
40 3 1 20.9261 -3.36868 7.01387
51 3 2 22.0011 -3.4655 7.2468
52 3 2 22.5947 -5.70971 7.64177
37 3 1 18.1853 -2.85399 6.51425
38 3 1 19.2383 -1.90877 6.3199
39 3 1 20.4474 -2.0823 6.9887
48 3 2 17.2466 -2.74203 6.06126
49 3 2 19.014 -0.842359 6.02695
50 3 2 21.1077 -1.28588 6.70111
55 4 3 5.40455 17.4764 8.6987
11 2 1 -12.2767 -23.3825 11.9796
12 2 1 -11.0232 -22.9495 11.3915
13 2 3 -10.8777 -23.3189 10.1971
14 2 3 -9.85018 -22.8557 12.1509
24 2 2 -13.1727 -23.1742 11.2549
25 2 2 -12.4068 -22.9405 13.0114
26 2 2 -12.1747 -24.5123 12.1587
21 2 1 -7.24223 -23.3328 13.516
22 2 3 -6.87688 -24.2044 12.6964
23 2 3 -6.56833 -23.2708 14.7297
31 2 2 -5.54469 -23.1333 14.8398
27 2 2 -9.81716 -20.5685 10.6223
20 2 1 -7.66848 -22.0277 12.8823
16 2 1 -9.08409 -20.6488 11.4336
28 2 2 -8.15267 -18.8185 10.8858
15 2 1 -8.73857 -21.9596 11.9313
17 2 1 -7.98343 -19.7916 11.2014
18 2 1 -6.96349 -19.8954 12.2
19 2 1 -6.63837 -21.1565 12.7435
29 2 2 -6.08011 -19.2624 12.0386
30 2 2 -5.82691 -21.1402 13.5118
1 1 1 18.8138 7.19822 14.7375
2 1 1 19.3374 8.38793 15.114
3 1 1 20.6531 8.78229 14.7538
7 1 2 17.7421 6.97628 14.9831
8 1 2 18.7844 9.03687 15.7325
5 1 4 20.9449 9.20768 13.3547
10 1 2 20.8015 8.46712 12.7504
4 1 3 21.6476 8.55428 15.4629
6 1 2 19.3066 6.58659 14.077
9 1 2 21.5459 9.91419 13.0613
66 4 2 3.07335 18.0835 10.2178
69 4 2 5.93589 21.0044 9.65778
59 4 1 7.88414 21.7543 9.75169
68 4 2 4.1853 16.8653 11.0825
54 4 1 5.22121 18.2392 9.72027
53 4 1 4.10052 17.8833 10.6885
56 4 3 6.39061 18.5578 10.5072
57 4 1 7.34454 19.487 10.207
58 4 1 6.91167 20.82 10.1409
60 4 1 9.08398 21.5944 10.3802
62 4 1 8.57856 19.2591 10.8806
67 4 2 4.05206 18.5699 11.6243
63 4 1 9.07207 17.8588 10.8596
61 4 1 9.53871 20.3038 10.6279
64 4 3 9.3255 17.2782 9.80715
65 4 3 9.81603 17.3984 11.9522
72 4 2 10.5317 20.2566 11.1465
73 4 2 9.68013 17.7668 12.8591
70 4 2 7.59422 22.8017 9.59384
71 4 2 9.81887 22.3695 10.2258
ITEM: TIMESTEP
3020
ITEM: NUMBER OF ATOMS
115
ITEM: BOX BOUNDS pp pp pp
-2.8628399999999999e+01 2.8628399999999999e+01
-2.8628399999999999e+01 2.8628399999999999e+01
-2.8628399999999999e+01 2.8628399999999999e+01
ITEM: ATOMS id mol type x y z
74 5 1 12.7757 -12.6584 -12.4154
75 5 1 13.6598 -11.4849 -12.8506
76 5 3 13.7124 -11.2541 -14.0967
77 5 3 14.7791 -11.2179 -12.1347
78 5 1 15.3788 -9.96544 -12.045
87 5 2 11.7311 -12.4294 -12.738
88 5 2 12.7532 -12.726 -11.3076
89 5 2 13.1847 -13.6081 -12.7262
83 5 1 16.6214 -9.95816 -11.3054
84 5 1 17.6608 -11.0291 -11.5712
85 5 3 17.2672 -12.2244 -11.3676
86 5 3 18.9165 -10.8116 -11.1624
94 5 2 19.1864 -10.9819 -10.2175
79 5 1 14.517 -8.89675 -11.623
80 5 1 15.057 -7.62629 -11.447
90 5 2 13.6711 -8.8254 -12.1979
91 5 2 14.452 -6.83827 -11.14
81 5 1 16.3338 -7.69964 -10.8666
82 5 1 17.202 -8.64723 -11.3602
92 5 2 16.7226 -6.77184 -10.6885
93 5 2 17.623 -8.44957 -12.368
97 6 3 16.2503 18.6462 -9.66855
95 6 1 15.6704 16.8629 -8.29492
108 6 2 14.789 16.7934 -8.86485
109 6 2 15.3814 16.5497 -7.24297
110 6 2 16.2702 16.0404 -8.77611
96 6 1 16.3628 18.2351 -8.4981
98 6 3 17.6036 18.323 -7.84175
99 6 1 18.5179 19.4161 -7.86495
100 6 1 17.9476 20.7073 -8.10882
101 6 1 18.8709 21.7919 -8.27086
102 6 1 20.0951 21.7472 -7.5393
103 6 1 20.5296 20.4736 -7.00389
104 6 1 19.6198 19.438 -6.84159
105 6 1 20.0555 18.2491 -6.04121
106 6 3 19.2557 17.3777 -5.69474
107 6 3 21.2416 18.2428 -5.32585
111 6 2 17.1485 20.7837 -8.8074
114 6 2 21.2819 20.5145 -6.31289
115 6 2 21.7166 17.3813 -5.1154
112 6 2 18.509 22.8095 -8.3957
113 6 2 20.926 22.4946 -7.64405
32 3 1 15.6755 -6.58913 6.38074
45 3 2 14.6921 -6.54249 5.88568
46 3 2 15.5518 -6.65246 7.50349
47 3 2 16.0704 -7.62199 6.05712
33 3 1 16.5306 -5.42354 5.93965
34 3 3 16.5651 -5.24252 4.69721
35 3 3 17.6769 -5.28186 6.77585
36 3 1 18.6574 -4.24206 6.61576
41 3 1 19.9683 -4.40894 7.1247
42 3 1 20.6777 -5.71006 6.83588
43 3 3 20.6657 -6.23437 5.7051
44 3 3 21.7406 -6.11967 7.67671
40 3 1 20.911 -3.27938 7.00271
51 3 2 21.8437 -3.37762 7.50607
52 3 2 22.6621 -5.66373 7.5311
37 3 1 18.2617 -2.85598 6.57466
38 3 1 19.1744 -1.77766 6.36158
39 3 1 20.3926 -1.95788 7.11073
48 3 2 17.2579 -2.64577 6.17813
49 3 2 18.6892 -0.802117 6.37318
50 3 2 21.0823 -1.07783 7.08089
55 4 3 5.46277 17.5417 8.80637
11 2 1 -12.2893 -23.4906 12.0501
12 2 1 -10.9707 -23.0739 11.4064
13 2 3 -10.9038 -23.4047 10.1771
14 2 3 -9.8773 -22.8422 12.1845
24 2 2 -13.1538 -23.4689 11.3565
25 2 2 -12.4214 -22.832 13.0044
26 2 2 -12.1629 -24.4869 12.4332
21 2 1 -7.2509 -23.3596 13.4831
22 2 3 -6.93076 -24.2912 12.6676
23 2 3 -6.52581 -23.2504 14.721
31 2 2 -5.64971 -22.7022 14.7706
27 2 2 -9.81627 -20.6488 10.6614
20 2 1 -7.72854 -22.0076 12.9149
16 2 1 -9.03434 -20.6731 11.3346
28 2 2 -8.06822 -18.9432 10.6043
15 2 1 -8.83813 -21.8998 12.0365
17 2 1 -7.90214 -19.8628 11.107
18 2 1 -6.97548 -19.8218 12.1576
19 2 1 -6.57332 -21.0735 12.704
29 2 2 -6.21755 -19.0777 11.9218
30 2 2 -5.95503 -20.9292 13.5629
1 1 1 18.7621 7.18538 14.6722
2 1 1 19.2851 8.37664 15.0803
3 1 1 20.6185 8.8205 14.7754
7 1 2 17.7553 6.92152 15.0302
8 1 2 18.6249 8.89478 15.7007
5 1 4 20.9052 9.14813 13.3961
10 1 2 20.7356 8.43497 12.6315
4 1 3 21.6271 8.39308 15.4569
6 1 2 19.3178 6.5471 13.9725
9 1 2 21.6064 9.96457 13.1074
66 4 2 3.17426 17.879 10.0123
69 4 2 5.88641 20.9289 9.79699
59 4 1 7.79266 21.7181 9.73668
68 4 2 4.19939 16.9654 11.2901
54 4 1 5.25258 18.156 9.88401
53 4 1 4.10586 17.8631 10.6914
56 4 3 6.34361 18.5558 10.5779
57 4 1 7.27631 19.4718 10.2125
58 4 1 6.81268 20.7769 10.1276
60 4 1 9.05235 21.6485 10.3667
62 4 1 8.59675 19.2719 10.8472
67 4 2 3.86039 18.7408 11.3995
63 4 1 9.01302 17.8512 10.8707
61 4 1 9.52335 20.263 10.479
64 4 3 9.38786 17.3575 9.79227
65 4 3 9.80836 17.4334 11.9232
72 4 2 10.4858 20.1412 11.0639
73 4 2 9.51605 17.4484 12.8757
70 4 2 7.40418 22.698 9.50745
71 4 2 9.7097 22.3542 9.98849
ITEM: TIMESTEP
3040
ITEM: NUMBER OF ATOMS
115
ITEM: BOX BOUNDS pp pp pp
-2.8628399999999999e+01 2.8628399999999999e+01
-2.8628399999999999e+01 2.8628399999999999e+01
-2.8628399999999999e+01 2.8628399999999999e+01
ITEM: ATOMS id mol type x y z
74 5 1 12.7351 -12.5594 -12.4099
75 5 1 13.6909 -11.5275 -12.8757
76 5 3 13.6343 -11.1755 -14.1197
77 5 3 14.8586 -11.2345 -12.1181
78 5 1 15.3652 -9.9529 -11.8979
87 5 2 11.7543 -12.3851 -12.9141
88 5 2 12.5451 -12.5364 -11.2827
89 5 2 13.1634 -13.5236 -12.7666
83 5 1 16.7092 -9.89638 -11.3119
84 5 1 17.6975 -11.0337 -11.6025
85 5 3 17.2523 -12.2155 -11.3926
86 5 3 18.9807 -10.9164 -11.045
94 5 2 19.1725 -11.1037 -10.0615
79 5 1 14.5196 -8.81544 -11.6982
80 5 1 15.0834 -7.54778 -11.438
90 5 2 13.5898 -8.78576 -12.2132
91 5 2 14.3945 -6.79111 -10.9998
81 5 1 16.3934 -7.53217 -10.8522
82 5 1 17.2049 -8.64733 -11.2988
92 5 2 16.8612 -6.52989 -10.7403
93 5 2 17.7712 -8.51345 -12.1718
97 6 3 16.3383 18.7043 -9.66146
95 6 1 15.7948 16.9102 -8.26798
108 6 2 14.7215 16.8964 -8.47927
109 6 2 16.0046 16.6374 -7.21506
110 6 2 16.2121 16.1353 -8.93207
96 6 1 16.3951 18.2506 -8.48445
98 6 3 17.6044 18.3351 -7.77628
99 6 1 18.4469 19.436 -7.83839
100 6 1 17.9568 20.718 -8.1564
101 6 1 18.8434 21.7516 -8.29176
102 6 1 20.0148 21.7407 -7.51475
103 6 1 20.4464 20.567 -7.02068
104 6 1 19.5383 19.4876 -6.8771
105 6 1 20.0696 18.1845 -6.14925
106 6 3 19.2457 17.2696 -5.70892
107 6 3 21.2244 18.2405 -5.36147
111 6 2 17.1285 20.8399 -8.83076
114 6 2 21.2038 20.5964 -6.26938
115 6 2 21.7923 17.3499 -5.2782
112 6 2 18.4076 22.7784 -8.39357
113 6 2 20.8347 22.4451 -7.72999
32 3 1 15.6978 -6.7214 6.33768
45 3 2 14.7468 -6.68561 5.83295
46 3 2 15.5792 -6.77888 7.49935
47 3 2 16.1312 -7.63345 5.98108
33 3 1 16.545 -5.53822 5.96537
34 3 3 16.5805 -5.31135 4.7334
35 3 3 17.73 -5.26624 6.75751
36 3 1 18.7474 -4.20719 6.62938
41 3 1 20.0647 -4.40154 7.11913
42 3 1 20.6823 -5.74117 6.88398
43 3 3 20.613 -6.21452 5.73648
44 3 3 21.7791 -6.14522 7.66105
40 3 1 20.9511 -3.24042 7.06472
51 3 2 21.9535 -3.33404 7.48306
52 3 2 22.6331 -5.77024 7.3896
37 3 1 18.2223 -2.78295 6.60477
38 3 1 19.1799 -1.74955 6.46846
39 3 1 20.3571 -1.99062 7.15213
48 3 2 17.2143 -2.59252 6.24117
49 3 2 18.675 -0.798677 6.48441
50 3 2 20.9141 -1.09562 7.32893
55 4 3 5.45493 17.5555 8.80645
11 2 1 -12.2553 -23.5496 12.1215
12 2 1 -10.9918 -23.1181 11.4091
13 2 3 -10.7987 -23.4342 10.16
14 2 3 -9.86749 -22.8621 12.2714
24 2 2 -13.1084 -23.4637 11.5243
25 2 2 -12.3441 -22.8797 13.0648
26 2 2 -12.223 -24.6021 12.4662
21 2 1 -7.21255 -23.2952 13.4253
22 2 3 -7.00487 -24.2845 12.7067
23 2 3 -6.60452 -23.378 14.6321
31 2 2 -5.70785 -23.0524 14.7547
27 2 2 -9.75537 -20.7797 10.5755
20 2 1 -7.68623 -22.013 12.9721
16 2 1 -9.06171 -20.6758 11.3544
28 2 2 -8.1187 -18.9808 10.4707
15 2 1 -8.77229 -21.9809 12.0206
17 2 1 -7.94475 -19.9192 11.0598
18 2 1 -7.05234 -19.7762 12.1023
19 2 1 -6.72326 -21.0228 12.6834
29 2 2 -6.24768 -19.0739 11.9381
30 2 2 -5.8999 -21.0339 13.3758
1 1 1 18.7048 7.21824 14.7465
2 1 1 19.2652 8.36292 15.1222
3 1 1 20.6073 8.81125 14.7656
7 1 2 17.7289 6.9156 15.0768
8 1 2 18.6748 8.93323 15.8484
5 1 4 20.8641 9.17694 13.3967
10 1 2 20.764 8.41596 12.6782
4 1 3 21.5781 8.46351 15.4611
6 1 2 19.24 6.5186 14.0951
9 1 2 21.6879 9.76026 13.2104
66 4 2 3.06738 17.9139 10.2125
69 4 2 5.93373 20.9113 9.51578
59 4 1 7.74971 21.7556 9.66445
68 4 2 4.11106 16.8614 11.3498
54 4 1 5.22422 18.1215 9.91626
53 4 1 3.99049 17.8202 10.7305
56 4 3 6.34669 18.4572 10.6189
57 4 1 7.31253 19.4364 10.2767
58 4 1 6.88089 20.7663 10.1078
60 4 1 9.04611 21.6165 10.1888
62 4 1 8.66143 19.2876 10.7872
67 4 2 3.81526 18.6078 11.4666
63 4 1 9.13517 17.868 10.849
61 4 1 9.5381 20.3212 10.3662
64 4 3 9.46783 17.3112 9.76651
65 4 3 9.84673 17.4554 12.0019
72 4 2 10.5279 20.1817 10.6905
73 4 2 9.41481 17.4798 12.9398
70 4 2 7.36752 22.744 9.60294
71 4 2 9.82123 22.3009 9.80898
ITEM: TIMESTEP
3060
ITEM: NUMBER OF ATOMS
115
ITEM: BOX BOUNDS pp pp pp
-2.8628399999999999e+01 2.8628399999999999e+01
-2.8628399999999999e+01 2.8628399999999999e+01
-2.8628399999999999e+01 2.8628399999999999e+01
ITEM: ATOMS id mol type x y z
74 5 1 12.6879 -12.5513 -12.4159
75 5 1 13.6864 -11.5416 -12.91
76 5 3 13.6434 -11.1506 -14.1434
77 5 3 14.7972 -11.2216 -12.0662
78 5 1 15.4127 -9.96517 -11.936
87 5 2 11.6942 -12.3043 -12.8466
88 5 2 12.6495 -12.5344 -11.3577
89 5 2 13.0035 -13.5763 -12.741
83 5 1 16.7158 -9.91144 -11.3285
84 5 1 17.7168 -11.0259 -11.5417
85 5 3 17.2605 -12.2045 -11.3957
86 5 3 18.9904 -10.9266 -11.02
94 5 2 19.1923 -10.9022 -10.0313
79 5 1 14.5337 -8.82339 -11.579
80 5 1 15.131 -7.5541 -11.4474
90 5 2 13.5642 -8.78018 -12.0407
91 5 2 14.4889 -6.73107 -11.1276
81 5 1 16.371 -7.55415 -10.836
82 5 1 17.2274 -8.56106 -11.3494
92 5 2 16.7735 -6.63377 -10.4194
93 5 2 17.8644 -8.23429 -12.1161
97 6 3 16.3084 18.7252 -9.69683
95 6 1 15.7425 16.9912 -8.14951
108 6 2 14.6733 17.1348 -8.37837
109 6 2 15.9271 16.8414 -7.05434
110 6 2 16.1593 16.1206 -8.76224
96 6 1 16.4111 18.2743 -8.50666
98 6 3 17.5759 18.4214 -7.78177
99 6 1 18.5046 19.4678 -7.8248
100 6 1 17.9492 20.7961 -8.18742
101 6 1 18.8674 21.8103 -8.3788
102 6 1 19.9491 21.8914 -7.46508
103 6 1 20.3938 20.5736 -6.98787
104 6 1 19.4385 19.4464 -6.7809
105 6 1 20.084 18.1622 -6.27328
106 6 3 19.2917 17.2944 -5.75627
107 6 3 21.1913 18.274 -5.41031
111 6 2 17.2039 20.9044 -8.92998
114 6 2 21.2729 20.5414 -6.28027
115 6 2 21.6528 17.4359 -5.03537
112 6 2 18.5988 22.7216 -8.84731
113 6 2 20.7149 22.5523 -7.77805
32 3 1 15.7177 -6.67061 6.363
45 3 2 14.719 -6.44859 5.85417
46 3 2 15.5974 -6.64323 7.47992
47 3 2 16.101 -7.60076 5.95048
33 3 1 16.6011 -5.5149 5.99196
34 3 3 16.6274 -5.35505 4.80612
35 3 3 17.7811 -5.23078 6.74544
36 3 1 18.715 -4.14304 6.6065
41 3 1 20.0171 -4.37335 7.16519
42 3 1 20.6875 -5.73321 6.87835
43 3 3 20.5865 -6.24871 5.69893
44 3 3 21.8506 -6.12664 7.65249
40 3 1 20.9533 -3.25303 7.22371
51 3 2 21.8371 -3.34731 7.79264
52 3 2 22.7686 -5.81689 7.4076
37 3 1 18.2394 -2.78917 6.56102
38 3 1 19.2652 -1.78037 6.52534
39 3 1 20.3993 -1.92581 7.29342
48 3 2 17.3829 -2.64377 5.96746
49 3 2 18.7703 -0.78233 6.4294
50 3 2 21.0805 -1.00953 7.39025
55 4 3 5.35798 17.475 8.87093
11 2 1 -12.1417 -23.5042 12.1409
12 2 1 -10.9984 -23.0531 11.3917
13 2 3 -10.8091 -23.4812 10.1898
14 2 3 -9.87163 -22.8257 12.2225
24 2 2 -12.9398 -23.3562 11.4147
25 2 2 -12.2592 -22.8532 13.0139
26 2 2 -12.1303 -24.5506 12.4635
21 2 1 -7.27511 -23.2609 13.4357
22 2 3 -7.0407 -24.2078 12.6277
23 2 3 -6.59436 -23.4126 14.6952
31 2 2 -5.55847 -23.1629 14.6927
27 2 2 -10.0437 -20.7813 10.705
20 2 1 -7.65392 -21.9725 12.8954
16 2 1 -9.08175 -20.7681 11.3813
28 2 2 -8.11307 -19.0956 10.4107
15 2 1 -8.75094 -22.0282 11.9608
17 2 1 -8.04561 -19.9152 11.0975
18 2 1 -6.99968 -19.7946 12.0424
19 2 1 -6.63454 -20.9734 12.6517
29 2 2 -6.27603 -19.0079 11.9066
30 2 2 -5.94487 -20.8014 13.4685
1 1 1 18.7057 7.1752 14.8402
2 1 1 19.2375 8.35341 15.179
3 1 1 20.6061 8.74917 14.7507
7 1 2 17.7025 6.98618 15.1558
8 1 2 18.6886 9.09478 15.7833
5 1 4 20.7716 9.08207 13.3728
10 1 2 20.5412 8.34088 12.704
4 1 3 21.5801 8.53806 15.4957
6 1 2 19.1686 6.41876 14.2699
9 1 2 21.3807 9.83461 13.0553
66 4 2 3.07662 17.9563 10.1414
69 4 2 5.72871 21.0054 9.81781
59 4 1 7.7485 21.6953 9.61478
68 4 2 4.03836 16.6827 11.0793
54 4 1 5.22002 18.1168 9.96066
53 4 1 4.01496 17.7943 10.7311
56 4 3 6.42328 18.4064 10.6372
57 4 1 7.30911 19.4263 10.2038
58 4 1 6.79178 20.7053 10.0384
60 4 1 9.09639 21.6267 10.0968
62 4 1 8.67275 19.2305 10.7523
67 4 2 3.8544 18.3635 11.6481
63 4 1 9.26391 17.8745 10.8785
61 4 1 9.55 20.3228 10.2794
64 4 3 9.4214 17.2377 9.80807
65 4 3 9.83199 17.4534 12.0425
72 4 2 10.5557 20.2656 10.6712
73 4 2 9.49858 17.8492 12.8588
70 4 2 7.39122 22.6727 9.52251
71 4 2 9.84761 22.3255 9.71359
ITEM: TIMESTEP
3080
ITEM: NUMBER OF ATOMS
115
ITEM: BOX BOUNDS pp pp pp
-2.8628399999999999e+01 2.8628399999999999e+01
-2.8628399999999999e+01 2.8628399999999999e+01
-2.8628399999999999e+01 2.8628399999999999e+01
ITEM: ATOMS id mol type x y z
74 5 1 12.7747 -12.5583 -12.5362
75 5 1 13.6084 -11.431 -12.9566
76 5 3 13.7132 -11.2279 -14.1719
77 5 3 14.7304 -11.1922 -12.1389
78 5 1 15.4323 -9.9725 -11.9688
87 5 2 11.734 -12.4373 -12.8856
88 5 2 12.6778 -12.5919 -11.3954
89 5 2 13.1298 -13.5695 -12.8809
83 5 1 16.7114 -9.94371 -11.2948
84 5 1 17.7208 -11.0506 -11.4711
85 5 3 17.2473 -12.2168 -11.4257
86 5 3 19.0654 -10.8592 -10.9889
94 5 2 19.3147 -10.9544 -10.0147
79 5 1 14.5791 -8.85149 -11.5796
80 5 1 15.1942 -7.6206 -11.464
90 5 2 13.5969 -8.84028 -12.0222
91 5 2 14.5893 -6.8345 -11.1303
81 5 1 16.4403 -7.69529 -10.8768
82 5 1 17.3376 -8.61944 -11.2893
92 5 2 16.8763 -6.69638 -10.7157
93 5 2 17.747 -8.32014 -12.2526
97 6 3 16.1811 18.633 -9.62902
95 6 1 15.6938 16.9422 -8.16819
108 6 2 14.6512 16.8343 -8.59203
109 6 2 15.6162 16.775 -7.03243
110 6 2 16.3141 16.1473 -8.67282
96 6 1 16.4152 18.219 -8.44198
98 6 3 17.6461 18.3716 -7.77014
99 6 1 18.5371 19.5207 -7.72848
100 6 1 17.9798 20.8082 -8.23404
101 6 1 18.8875 21.8266 -8.3441
102 6 1 19.9195 21.808 -7.40906
103 6 1 20.4215 20.6461 -6.92866
104 6 1 19.5149 19.5591 -6.71592
105 6 1 20.027 18.2316 -6.19756
106 6 3 19.2333 17.3185 -5.81118
107 6 3 21.1946 18.2581 -5.45974
111 6 2 17.3353 20.7994 -9.11345
114 6 2 21.1262 20.6981 -6.18514
115 6 2 21.6538 17.3966 -5.07351
112 6 2 18.4683 22.7747 -8.58415
113 6 2 20.619 22.6097 -7.49532
32 3 1 15.7904 -6.67476 6.39326
45 3 2 14.7552 -6.57447 5.83343
46 3 2 15.6423 -6.75798 7.46905
47 3 2 16.2916 -7.51526 5.88791
33 3 1 16.5927 -5.39988 5.99298
34 3 3 16.6704 -5.36663 4.7656
35 3 3 17.8026 -5.24365 6.71852
36 3 1 18.771 -4.13983 6.60301
41 3 1 20.0931 -4.38271 7.12311
42 3 1 20.7018 -5.72128 6.93565
43 3 3 20.5105 -6.26911 5.78962
44 3 3 21.8304 -6.05411 7.57794
40 3 1 20.9774 -3.30304 7.3211
51 3 2 21.8677 -3.33603 7.94053
52 3 2 22.8019 -5.77626 7.25784
37 3 1 18.369 -2.76222 6.50171
38 3 1 19.2931 -1.74227 6.48611
39 3 1 20.5105 -1.98054 7.21872
48 3 2 17.4032 -2.51441 6.02621
49 3 2 18.7825 -0.777954 6.47697
50 3 2 21.2133 -1.23407 7.13734
55 4 3 5.39085 17.5073 8.92489
11 2 1 -12.192 -23.4509 12.1498
12 2 1 -11.0108 -23.0156 11.4023
13 2 3 -10.8244 -23.5427 10.2841
14 2 3 -9.87294 -22.8589 12.1594
24 2 2 -13.1173 -23.3796 11.524
25 2 2 -12.2508 -22.861 13.1451
26 2 2 -12.0316 -24.5346 12.3468
21 2 1 -7.32029 -23.3111 13.4662
22 2 3 -7.04112 -24.2395 12.6415
23 2 3 -6.61856 -23.3999 14.6557
31 2 2 -5.64242 -23.3838 14.688
27 2 2 -9.76314 -20.8888 10.487
20 2 1 -7.68903 -21.989 12.8456
16 2 1 -9.05138 -20.7642 11.3178
28 2 2 -8.3411 -18.7907 10.894
15 2 1 -8.80326 -22.0313 11.9272
17 2 1 -8.04868 -19.8132 11.0393
18 2 1 -6.97858 -19.8824 12.0273
19 2 1 -6.57871 -21.0535 12.6286
29 2 2 -6.15072 -19.1941 11.7832
30 2 2 -5.80082 -20.9497 13.3671
1 1 1 18.6277 7.21115 14.8907
2 1 1 19.2277 8.29296 15.2416
3 1 1 20.527 8.76405 14.7449
7 1 2 17.6697 7.10577 15.4702
8 1 2 18.7975 8.94103 15.9757
5 1 4 20.6701 9.03383 13.362
10 1 2 20.493 8.27512 12.6596
4 1 3 21.54 8.57192 15.4972
6 1 2 18.8931 6.42761 14.2584
9 1 2 21.1671 9.91766 13.0346
66 4 2 3.13605 17.8606 10.0347
69 4 2 6.01294 20.9232 9.38853
59 4 1 7.74736 21.6693 9.56565
68 4 2 4.02915 16.7389 11.13
54 4 1 5.25558 18.1404 9.99715
53 4 1 4.01144 17.7989 10.7391
56 4 3 6.48856 18.4591 10.6034
57 4 1 7.40432 19.4187 10.0812
58 4 1 6.86851 20.7118 9.9685
60 4 1 9.02222 21.502 10.1018
62 4 1 8.63972 19.2768 10.6528
67 4 2 3.8213 18.4417 11.6228
63 4 1 9.23694 17.8755 10.8697
61 4 1 9.61954 20.2501 10.3248
64 4 3 9.50849 17.1499 9.87713
65 4 3 9.89555 17.5169 12.1159
72 4 2 10.5877 20.2488 10.8301
73 4 2 9.71689 17.9541 12.9898
70 4 2 7.34737 22.7177 9.38626
71 4 2 9.75034 22.1427 9.77772
ITEM: TIMESTEP
3100
ITEM: NUMBER OF ATOMS
115
ITEM: BOX BOUNDS pp pp pp
-2.8628399999999999e+01 2.8628399999999999e+01
-2.8628399999999999e+01 2.8628399999999999e+01
-2.8628399999999999e+01 2.8628399999999999e+01
ITEM: ATOMS id mol type x y z
74 5 1 12.791 -12.628 -12.5656
75 5 1 13.5824 -11.4151 -12.9819
76 5 3 13.716 -11.2237 -14.2638
77 5 3 14.6986 -11.1649 -12.1426
78 5 1 15.4321 -9.98974 -11.8734
87 5 2 11.82 -12.7264 -13.0322
88 5 2 12.6471 -12.592 -11.4814
89 5 2 13.3543 -13.568 -12.8426
83 5 1 16.6872 -10.0057 -11.2824
84 5 1 17.6697 -11.12 -11.4245
85 5 3 17.2817 -12.2849 -11.4285
86 5 3 18.9752 -10.9288 -10.9746
94 5 2 19.2027 -11.0055 -10.0187
79 5 1 14.6108 -8.82932 -11.628
80 5 1 15.2575 -7.61343 -11.4085
90 5 2 13.6587 -8.80722 -12.2638
91 5 2 14.5944 -6.78423 -11.103
81 5 1 16.5946 -7.6435 -10.8909
82 5 1 17.3236 -8.74716 -11.346
92 5 2 17.0311 -6.66769 -10.7225
93 5 2 17.9618 -8.53944 -12.1637
97 6 3 16.2698 18.4876 -9.54006
95 6 1 15.7001 16.8544 -8.20274
108 6 2 14.7042 16.9707 -8.58472
109 6 2 15.5543 16.6632 -7.16976
110 6 2 16.2967 16.0591 -8.66715
96 6 1 16.3989 18.0942 -8.35426
98 6 3 17.6025 18.3808 -7.74353
99 6 1 18.4735 19.4996 -7.78304
100 6 1 18.0136 20.7272 -8.21993
101 6 1 18.9634 21.8317 -8.3028
102 6 1 19.9032 21.7851 -7.28149
103 6 1 20.4278 20.5811 -6.82598
104 6 1 19.4547 19.515 -6.69944
105 6 1 20.0134 18.2514 -6.14181
106 6 3 19.2149 17.2993 -5.84215
107 6 3 21.2177 18.2795 -5.48317
111 6 2 17.2096 20.7833 -8.93561
114 6 2 21.2593 20.6014 -6.10263
115 6 2 21.7532 17.4842 -5.42753
112 6 2 18.57 22.7617 -8.67767
113 6 2 20.6296 22.5641 -7.44856
32 3 1 15.8076 -6.66611 6.41263
45 3 2 14.8644 -6.80016 5.8587
46 3 2 15.6406 -6.50719 7.50317
47 3 2 16.3537 -7.61942 6.17729
33 3 1 16.6209 -5.46274 5.91858
34 3 3 16.7885 -5.26778 4.72862
35 3 3 17.8416 -5.1128 6.65244
36 3 1 18.766 -4.07912 6.49195
41 3 1 20.0346 -4.37473 7.13847
42 3 1 20.609 -5.78235 6.92477
43 3 3 20.3743 -6.25883 5.76631
44 3 3 21.865 -5.97034 7.52631
40 3 1 21.0118 -3.30195 7.25495
51 3 2 21.828 -3.36415 8.07897
52 3 2 22.7513 -5.72403 7.1172
37 3 1 18.3341 -2.77333 6.51556
38 3 1 19.3397 -1.75434 6.44353
39 3 1 20.5516 -1.95307 7.18229
48 3 2 17.4622 -2.6425 5.85915
49 3 2 18.9144 -0.693805 6.38742
50 3 2 21.308 -1.17542 7.12254
55 4 3 5.41659 17.5321 8.82544
11 2 1 -12.3207 -23.4123 12.1326
12 2 1 -11.0949 -22.9832 11.3797
13 2 3 -10.8883 -23.47 10.2638
14 2 3 -9.94418 -22.8295 12.1632
24 2 2 -13.1948 -23.415 11.5093
25 2 2 -12.5483 -22.8222 13.1055
26 2 2 -12.113 -24.4956 12.3336
21 2 1 -7.25521 -23.396 13.4889
22 2 3 -7.06513 -24.2626 12.5958
23 2 3 -6.56128 -23.4189 14.6378
31 2 2 -5.59229 -23.1302 14.7727
27 2 2 -9.75179 -20.5992 10.5149
20 2 1 -7.73527 -22.0447 12.8296
16 2 1 -8.98592 -20.7776 11.2132
28 2 2 -8.02605 -18.827 10.7337
15 2 1 -8.82145 -22.0384 11.8063
17 2 1 -7.97495 -19.8202 11.1753
18 2 1 -6.90388 -19.8892 12.0528
19 2 1 -6.66227 -21.222 12.5275
29 2 2 -6.0528 -19.3121 11.6836
30 2 2 -5.84617 -21.1917 13.3333
1 1 1 18.5883 7.16225 14.9457
2 1 1 19.1621 8.26754 15.3797
3 1 1 20.4698 8.69853 14.7565
7 1 2 17.5965 6.89932 15.2754
8 1 2 18.811 8.80492 16.2271
5 1 4 20.631 8.93069 13.3416
10 1 2 20.8192 8.22128 12.6452
4 1 3 21.5339 8.59199 15.4501
6 1 2 18.9807 6.66634 14.0462
9 1 2 20.9194 9.88547 13.1394
66 4 2 3.13133 17.8493 10.0742
69 4 2 5.83877 20.9674 9.6397
59 4 1 7.83313 21.6902 9.50591
68 4 2 4.06523 16.8408 11.1393
54 4 1 5.28202 18.1516 9.90299
53 4 1 4.00682 17.883 10.7556
56 4 3 6.44485 18.4093 10.5773
57 4 1 7.33835 19.2754 10.0232
58 4 1 6.82357 20.662 9.88126
60 4 1 9.10209 21.5758 10.1021
62 4 1 8.59715 19.23 10.6586
67 4 2 3.90276 18.6241 11.6476
63 4 1 9.1753 17.8303 10.9118
61 4 1 9.58071 20.2535 10.3359
64 4 3 9.53904 17.1345 9.93092
65 4 3 9.97208 17.6656 11.9861
72 4 2 10.54 20.17 10.7657
73 4 2 9.79128 18.1447 12.9616
70 4 2 7.4812 22.753 9.47916
71 4 2 9.87315 22.3514 9.90893
ITEM: TIMESTEP
3120
ITEM: NUMBER OF ATOMS
115
ITEM: BOX BOUNDS pp pp pp
-2.8628399999999999e+01 2.8628399999999999e+01
-2.8628399999999999e+01 2.8628399999999999e+01
-2.8628399999999999e+01 2.8628399999999999e+01
ITEM: ATOMS id mol type x y z
74 5 1 12.7744 -12.6278 -12.5781
75 5 1 13.5783 -11.4374 -12.9829
76 5 3 13.7491 -11.2443 -14.1998
77 5 3 14.6585 -11.1815 -12.1497
78 5 1 15.3734 -9.95366 -12.0105
87 5 2 11.896 -12.7029 -13.1433
88 5 2 12.4381 -12.5294 -11.5424
89 5 2 13.3828 -13.4871 -12.8051
83 5 1 16.6849 -9.95178 -11.3253
84 5 1 17.6871 -11.1804 -11.4832
85 5 3 17.3132 -12.3515 -11.4062
86 5 3 18.9564 -10.9588 -10.9647
94 5 2 19.0509 -11.0109 -9.9571
79 5 1 14.6027 -8.82863 -11.6258
80 5 1 15.3151 -7.5875 -11.4657
90 5 2 13.5725 -8.83237 -11.8345
91 5 2 14.7273 -6.76411 -11.1745
81 5 1 16.584 -7.63555 -10.9234
82 5 1 17.3093 -8.75677 -11.3166
92 5 2 17.0029 -6.72098 -10.7384
93 5 2 17.9327 -8.59751 -12.2097
97 6 3 16.3555 18.4949 -9.58127
95 6 1 15.6905 16.6944 -8.1539
108 6 2 14.6666 16.5946 -8.75154
109 6 2 15.4718 16.6043 -7.1038
110 6 2 16.4309 15.8795 -8.49112
96 6 1 16.3636 18.0291 -8.3962
98 6 3 17.5176 18.3164 -7.63504
99 6 1 18.4505 19.3905 -7.76791
100 6 1 18.0487 20.6813 -8.23057
101 6 1 19.0052 21.6932 -8.23783
102 6 1 19.8827 21.8065 -7.23596
103 6 1 20.407 20.5634 -6.80551
104 6 1 19.5075 19.4151 -6.74687
105 6 1 19.9959 18.1493 -6.14942
106 6 3 19.2458 17.2332 -5.77301
107 6 3 21.2085 18.2118 -5.49844
111 6 2 17.2456 20.8589 -8.96155
114 6 2 21.1095 20.589 -5.98804
115 6 2 21.8861 17.4524 -5.49372
112 6 2 18.6032 22.6465 -8.5914
113 6 2 20.5212 22.6007 -7.29156
32 3 1 15.9072 -6.53859 6.47994
45 3 2 14.9586 -6.67948 5.96172
46 3 2 15.677 -6.26233 7.52194
47 3 2 16.5239 -7.49926 6.41335
33 3 1 16.6909 -5.40459 5.87862
34 3 3 16.8289 -5.35663 4.66001
35 3 3 17.8491 -5.0587 6.6033
36 3 1 18.7837 -4.1064 6.45233
41 3 1 20.0453 -4.34022 7.20337
42 3 1 20.6337 -5.67922 6.93099
43 3 3 20.4133 -6.27378 5.84029
44 3 3 21.8296 -6.04465 7.41285
40 3 1 20.923 -3.26245 7.24501
51 3 2 21.862 -3.39952 7.63687
52 3 2 22.6849 -5.68255 7.0022
37 3 1 18.3648 -2.72757 6.52345
38 3 1 19.3358 -1.76652 6.37801
39 3 1 20.4542 -1.94059 7.12761
48 3 2 17.4132 -2.46386 6.14067
49 3 2 18.9457 -0.767368 6.44917
50 3 2 21.254 -1.17405 6.87623
55 4 3 5.31591 17.6362 8.76832
11 2 1 -12.3903 -23.3882 12.1378
12 2 1 -11.1319 -22.9806 11.3767
13 2 3 -10.9649 -23.4225 10.2316
14 2 3 -9.92056 -22.7846 12.1602
24 2 2 -13.2011 -23.4665 11.3797
25 2 2 -12.6852 -22.6432 12.8835
26 2 2 -12.2802 -24.3673 12.5697
21 2 1 -7.36688 -23.3976 13.3626
22 2 3 -6.94012 -24.2664 12.5024
23 2 3 -6.58772 -23.3711 14.5931
31 2 2 -5.6446 -22.9343 14.6858
27 2 2 -9.6782 -20.7176 10.3262
20 2 1 -7.7175 -22.0692 12.771
16 2 1 -9.03043 -20.7191 11.1854
28 2 2 -8.16951 -18.7599 10.8113
15 2 1 -8.81264 -21.9794 11.8232
17 2 1 -7.97615 -19.8542 11.0403
18 2 1 -6.97231 -19.9171 12.0755
19 2 1 -6.65745 -21.2175 12.5211
29 2 2 -6.21531 -19.1208 11.987
30 2 2 -5.76356 -21.406 13.0681
1 1 1 18.5487 7.06423 14.9528
2 1 1 19.2242 8.12551 15.3669
3 1 1 20.4645 8.62617 14.7381
7 1 2 17.656 6.72251 15.403
8 1 2 18.8382 8.66328 16.2733
5 1 4 20.5772 8.82858 13.3551
10 1 2 20.9205 7.96001 12.8505
4 1 3 21.4979 8.65733 15.4359
6 1 2 18.968 6.54085 14.1137
9 1 2 20.4628 9.78559 12.9145
66 4 2 3.08401 18 10.0674
69 4 2 6.01454 20.8479 9.1059
59 4 1 7.80644 21.6899 9.55062
68 4 2 4.02659 16.882 11.1108
54 4 1 5.20597 18.1083 9.88798
53 4 1 4.01572 17.9148 10.7251
56 4 3 6.39485 18.4317 10.5182
57 4 1 7.3614 19.3991 10.0567
58 4 1 6.90047 20.7095 9.74649
60 4 1 9.09704 21.5952 10.088
62 4 1 8.64801 19.2261 10.6787
67 4 2 4.05093 18.6383 11.4962
63 4 1 9.18513 17.8306 10.881
61 4 1 9.56777 20.231 10.2759
64 4 3 9.55614 17.1575 9.86917
65 4 3 10.0455 17.674 11.9304
72 4 2 10.6209 20.219 10.7233
73 4 2 9.83279 17.93 12.7884
70 4 2 7.49266 22.6119 9.26216
71 4 2 9.82984 22.357 9.77226
ITEM: TIMESTEP
3140
ITEM: NUMBER OF ATOMS
115
ITEM: BOX BOUNDS pp pp pp
-2.8628399999999999e+01 2.8628399999999999e+01
-2.8628399999999999e+01 2.8628399999999999e+01
-2.8628399999999999e+01 2.8628399999999999e+01
ITEM: ATOMS id mol type x y z
74 5 1 12.8256 -12.6577 -12.6017
75 5 1 13.597 -11.3923 -12.9424
76 5 3 13.8034 -11.2059 -14.1197
77 5 3 14.6821 -11.1393 -12.1212
78 5 1 15.3716 -9.92831 -12.0488
87 5 2 11.7894 -12.7546 -13.182
88 5 2 12.5273 -12.5502 -11.5022
89 5 2 13.4029 -13.523 -12.8035
83 5 1 16.6765 -9.99062 -11.3542
84 5 1 17.6643 -11.1116 -11.5201
85 5 3 17.2457 -12.2541 -11.3882
86 5 3 18.9811 -10.9126 -10.9175
94 5 2 19.1606 -11.2273 -9.9532
79 5 1 14.5705 -8.78286 -11.6147
80 5 1 15.2864 -7.54349 -11.4948
90 5 2 13.5974 -8.61803 -12.0378
91 5 2 14.6871 -6.72816 -11.1341
81 5 1 16.5967 -7.68479 -10.8606
82 5 1 17.3351 -8.76039 -11.2728
92 5 2 17.0737 -6.74573 -10.5019
93 5 2 18.0822 -8.58565 -12.033
97 6 3 16.4086 18.394 -9.60368
95 6 1 15.8125 16.6722 -8.14603
108 6 2 14.7748 16.5648 -8.63582
109 6 2 15.6828 16.6426 -7.02123
110 6 2 16.4999 15.8683 -8.40114
96 6 1 16.4411 17.9749 -8.4157
98 6 3 17.5243 18.3104 -7.59071
99 6 1 18.5178 19.3427 -7.74699
100 6 1 18.0376 20.5975 -8.20555
101 6 1 18.9407 21.6973 -8.21279
102 6 1 19.887 21.7546 -7.17696
103 6 1 20.448 20.4838 -6.7718
104 6 1 19.5194 19.4087 -6.65876
105 6 1 20.0631 18.0787 -6.16518
106 6 3 19.2943 17.1761 -5.74254
107 6 3 21.2689 18.1715 -5.45891
111 6 2 17.3569 20.6952 -9.00484
114 6 2 21.0634 20.6103 -5.8808
115 6 2 21.8731 17.309 -5.2592
112 6 2 18.5154 22.5439 -8.65629
113 6 2 20.608 22.5625 -7.1959
32 3 1 15.9291 -6.40394 6.47459
45 3 2 15.0393 -6.60707 5.85956
46 3 2 15.6006 -6.12895 7.52506
47 3 2 16.5926 -7.26686 6.4909
33 3 1 16.6769 -5.32405 5.86285
34 3 3 16.7871 -5.42532 4.61516
35 3 3 17.8879 -5.09822 6.6718
36 3 1 18.8366 -4.06178 6.54233
41 3 1 20.0787 -4.30841 7.12986
42 3 1 20.6626 -5.74306 6.97506
43 3 3 20.4142 -6.31686 5.89181
44 3 3 21.9748 -6.05983 7.47038
40 3 1 20.9698 -3.28704 7.1983
51 3 2 21.7416 -3.42651 7.93663
52 3 2 22.79 -5.70801 6.94129
37 3 1 18.322 -2.706 6.53589
38 3 1 19.2811 -1.70941 6.31142
39 3 1 20.5059 -1.93528 7.13249
48 3 2 17.3313 -2.60585 6.0329
49 3 2 18.9582 -0.725212 6.08541
50 3 2 21.1363 -1.17694 7.51827
55 4 3 5.23683 17.6613 8.73377
11 2 1 -12.3972 -23.373 12.1016
12 2 1 -11.1147 -22.9383 11.4112
13 2 3 -11.008 -23.4196 10.3122
14 2 3 -9.97299 -22.6756 12.128
24 2 2 -13.2968 -23.1528 11.4204
25 2 2 -12.4893 -22.7853 13.0323
26 2 2 -12.4195 -24.4413 12.3738
21 2 1 -7.32251 -23.3496 13.3145
22 2 3 -6.83944 -24.1737 12.4887
23 2 3 -6.65893 -23.2817 14.4573
31 2 2 -5.64213 -23.2561 14.4555
27 2 2 -9.92054 -20.6279 10.5104
20 2 1 -7.74744 -22.0668 12.7629
16 2 1 -9.09001 -20.7104 11.2223
28 2 2 -8.09251 -18.8761 10.4419
15 2 1 -8.81178 -22.0339 11.8045
17 2 1 -8.02047 -19.8106 11.0594
18 2 1 -7.01072 -19.8809 12.0432
19 2 1 -6.68898 -21.145 12.4969
29 2 2 -6.18434 -19.1921 11.8111
30 2 2 -6.04015 -21.0928 13.3213
1 1 1 18.6603 6.93989 14.9912
2 1 1 19.2324 8.06983 15.3593
3 1 1 20.4536 8.59736 14.7624
7 1 2 17.6966 6.58126 15.5194
8 1 2 18.8078 8.51516 16.2306
5 1 4 20.5529 8.67316 13.3447
10 1 2 20.8975 7.87062 12.8155
4 1 3 21.5182 8.64858 15.4182
6 1 2 18.9887 6.25997 14.1731
9 1 2 20.1666 9.5485 12.855
66 4 2 2.91704 18.0143 10.1371
69 4 2 5.90872 20.9084 9.14607
59 4 1 7.85225 21.729 9.49395
68 4 2 3.9478 16.8884 11.1472
54 4 1 5.14351 18.1816 9.86759
53 4 1 3.9225 17.9259 10.7171
56 4 3 6.36826 18.4611 10.5512
57 4 1 7.33997 19.3962 10.0965
58 4 1 6.91248 20.7138 9.66998
60 4 1 9.08582 21.5381 10.1637
62 4 1 8.66878 19.2416 10.6492
67 4 2 3.96734 18.6495 11.5325
63 4 1 9.181 17.8663 10.7555
61 4 1 9.58454 20.2365 10.2955
64 4 3 9.57869 17.1706 9.74872
65 4 3 10.0812 17.6772 11.8743
72 4 2 10.5947 20.1085 10.6273
73 4 2 9.86561 18.1877 12.7368
70 4 2 7.44775 22.7918 9.69425
71 4 2 9.8472 22.2668 9.97565
ITEM: TIMESTEP
3160
ITEM: NUMBER OF ATOMS
115
ITEM: BOX BOUNDS pp pp pp
-2.8628399999999999e+01 2.8628399999999999e+01
-2.8628399999999999e+01 2.8628399999999999e+01
-2.8628399999999999e+01 2.8628399999999999e+01
ITEM: ATOMS id mol type x y z
74 5 1 12.9141 -12.6318 -12.5491
75 5 1 13.6026 -11.4131 -12.9077
76 5 3 13.7757 -11.1177 -14.1091
77 5 3 14.7312 -11.1044 -12.0398
78 5 1 15.4896 -9.94053 -12.0032
87 5 2 11.9484 -12.5836 -13.1048
88 5 2 12.62 -12.7303 -11.5266
89 5 2 13.524 -13.502 -12.7815
83 5 1 16.8207 -10.0077 -11.3931
84 5 1 17.7703 -11.1224 -11.6062
85 5 3 17.245 -12.1992 -11.3924
86 5 3 18.9817 -10.9558 -10.9797
94 5 2 19.103 -11.0979 -9.95301
79 5 1 14.69 -8.7959 -11.7062
80 5 1 15.2785 -7.54136 -11.4379
90 5 2 13.6939 -8.75768 -12.1295
91 5 2 14.6937 -6.69384 -11.2014
81 5 1 16.5373 -7.67083 -10.8106
82 5 1 17.3816 -8.67489 -11.2995
92 5 2 16.9415 -6.67082 -10.7369
93 5 2 17.9901 -8.37143 -12.1313
97 6 3 16.4406 18.3693 -9.56561
95 6 1 15.8476 16.6426 -8.12896
108 6 2 14.9472 16.6674 -8.6513
109 6 2 15.6062 16.4096 -7.09061
110 6 2 16.5537 15.8887 -8.43969
96 6 1 16.4602 17.9936 -8.35424
98 6 3 17.569 18.3651 -7.55738
99 6 1 18.4767 19.3405 -7.73053
100 6 1 17.984 20.5826 -8.11394
101 6 1 18.936 21.5741 -8.26344
102 6 1 19.865 21.598 -7.2003
103 6 1 20.3557 20.399 -6.68817
104 6 1 19.4761 19.3321 -6.66768
105 6 1 20.0838 18.0068 -6.14613
106 6 3 19.3587 17.1047 -5.71873
107 6 3 21.3111 18.1134 -5.50575
111 6 2 17.3585 20.5258 -8.91657
114 6 2 21.0827 20.49 -5.93
115 6 2 21.8495 17.3489 -5.25182
112 6 2 18.433 22.5381 -8.46807
113 6 2 20.566 22.3752 -7.21194
32 3 1 15.9168 -6.46388 6.45913
45 3 2 14.9631 -6.47878 5.96005
46 3 2 15.7259 -6.20383 7.52431
47 3 2 16.4447 -7.46186 6.35183
33 3 1 16.7301 -5.36845 5.89066
34 3 3 16.8497 -5.38329 4.62802
35 3 3 17.8628 -5.04278 6.7021
36 3 1 18.8198 -4.08162 6.48105
41 3 1 20.0903 -4.35778 7.16816
42 3 1 20.7452 -5.70532 6.9732
43 3 3 20.4181 -6.34655 5.99522
44 3 3 22.0032 -6.00008 7.55811
40 3 1 21.0234 -3.21635 7.18661
51 3 2 21.9706 -3.28956 7.71986
52 3 2 22.8474 -5.70351 7.11056
37 3 1 18.3683 -2.72353 6.45923
38 3 1 19.2679 -1.73763 6.43791
39 3 1 20.4596 -1.9393 7.1246
48 3 2 17.3952 -2.49259 5.87984
49 3 2 18.8736 -0.707113 6.48431
50 3 2 21.114 -1.09105 7.19692
55 4 3 5.20932 17.7198 8.73521
11 2 1 -12.422 -23.3869 12.1649
12 2 1 -11.2655 -22.8944 11.371
13 2 3 -11.108 -23.4067 10.2572
14 2 3 -10.0253 -22.7367 12.1224
24 2 2 -13.2886 -23.0792 11.6059
25 2 2 -12.5039 -22.9193 13.1722
26 2 2 -12.4011 -24.5215 12.1625
21 2 1 -7.30189 -23.366 13.2359
22 2 3 -6.79029 -24.1533 12.3718
23 2 3 -6.66557 -23.3224 14.4937
31 2 2 -5.82777 -22.9348 14.59
27 2 2 -9.80818 -20.5385 10.481
20 2 1 -7.78172 -21.9875 12.7229
16 2 1 -9.08206 -20.5877 11.2449
28 2 2 -8.20661 -18.8246 10.7871
15 2 1 -8.90966 -21.9183 11.8099
17 2 1 -7.99694 -19.8176 11.0253
18 2 1 -7.05349 -19.8167 12.0083
19 2 1 -6.76043 -21.0397 12.581
29 2 2 -6.22144 -19.1354 11.8019
30 2 2 -5.98022 -21.1366 13.2851
1 1 1 18.7116 6.88108 14.9318
2 1 1 19.2382 8.07643 15.292
3 1 1 20.4695 8.58542 14.7021
7 1 2 17.762 6.56471 15.3757
8 1 2 18.7926 8.49544 16.1433
5 1 4 20.5509 8.68389 13.2872
10 1 2 20.9359 7.84393 12.7663
4 1 3 21.5422 8.69843 15.3886
6 1 2 19.0271 6.29333 14.1076
9 1 2 19.7787 9.23024 12.9164
66 4 2 2.94477 17.994 9.90419
69 4 2 6.05864 20.896 9.29661
59 4 1 7.94351 21.6985 9.57703
68 4 2 3.84474 16.7901 10.7886
54 4 1 5.1169 18.2683 9.85499
53 4 1 3.83626 17.8576 10.5666
56 4 3 6.26563 18.4344 10.5306
57 4 1 7.24563 19.3127 10.0851
58 4 1 6.9286 20.7019 9.74504
60 4 1 9.20136 21.5693 10.1608
62 4 1 8.61685 19.1451 10.6156
67 4 2 3.64075 18.4563 11.4331
63 4 1 9.21919 17.8207 10.7714
61 4 1 9.65155 20.203 10.3748
64 4 3 9.54088 17.1828 9.72376
65 4 3 10.1333 17.7302 11.7489
72 4 2 10.4923 20.1227 11.0069
73 4 2 9.90146 17.9272 12.7471
70 4 2 7.66191 22.7297 9.34366
71 4 2 9.9478 22.3757 10.0119
ITEM: TIMESTEP
3180
ITEM: NUMBER OF ATOMS
115
ITEM: BOX BOUNDS pp pp pp
-2.8628399999999999e+01 2.8628399999999999e+01
-2.8628399999999999e+01 2.8628399999999999e+01
-2.8628399999999999e+01 2.8628399999999999e+01
ITEM: ATOMS id mol type x y z
74 5 1 12.921 -12.5682 -12.5455
75 5 1 13.726 -11.374 -12.9161
76 5 3 13.7773 -11.0539 -14.1163
77 5 3 14.8108 -11.0951 -12.0597
78 5 1 15.5061 -9.90568 -12.0357
87 5 2 12.0076 -12.5823 -13.1713
88 5 2 12.58 -12.5269 -11.471
89 5 2 13.5059 -13.5515 -12.743
83 5 1 16.8396 -9.88407 -11.3799
84 5 1 17.7172 -11.1402 -11.482
85 5 3 17.2112 -12.2732 -11.4736
86 5 3 19.035 -11.0416 -11.0163
94 5 2 19.2892 -10.9095 -10.0649
79 5 1 14.6815 -8.83409 -11.6717
80 5 1 15.337 -7.62179 -11.5117
90 5 2 13.7108 -8.69986 -12.1163
91 5 2 14.6467 -6.81724 -11.2288
81 5 1 16.5941 -7.61098 -10.894
82 5 1 17.4513 -8.62901 -11.3206
92 5 2 16.9487 -6.6503 -10.5691
93 5 2 18.1036 -8.32462 -12.2582
97 6 3 16.4188 18.3261 -9.49638
95 6 1 15.8801 16.6152 -8.19234
108 6 2 14.9247 16.4672 -8.71008
109 6 2 15.6626 16.3735 -7.11638
110 6 2 16.6796 15.8542 -8.49145
96 6 1 16.4548 17.9072 -8.33688
98 6 3 17.5313 18.268 -7.52021
99 6 1 18.4921 19.2932 -7.64715
100 6 1 18.0007 20.5847 -8.09773
101 6 1 18.9179 21.6249 -8.23364
102 6 1 19.8533 21.6727 -7.24554
103 6 1 20.3787 20.4112 -6.71511
104 6 1 19.5491 19.2628 -6.64677
105 6 1 20.1284 17.9235 -6.13897
106 6 3 19.3777 17.0121 -5.7187
107 6 3 21.3845 18.0596 -5.50466
111 6 2 17.2107 20.5582 -8.95256
114 6 2 21.1522 20.5886 -5.88039
115 6 2 21.942 17.3222 -5.43402
112 6 2 18.6117 22.5719 -8.68046
113 6 2 20.4726 22.5387 -7.22059
32 3 1 15.9324 -6.44981 6.43182
45 3 2 14.888 -6.36387 6.04238
46 3 2 15.8991 -6.31507 7.56209
47 3 2 16.3711 -7.49772 6.09111
33 3 1 16.7889 -5.32905 5.88633
34 3 3 16.9039 -5.24327 4.64871
35 3 3 17.8292 -5.03978 6.76621
36 3 1 18.8151 -4.07622 6.53972
41 3 1 20.1005 -4.30441 7.17404
42 3 1 20.7528 -5.65426 6.99169
43 3 3 20.4184 -6.37933 6.05706
44 3 3 21.9939 -5.92114 7.56222
40 3 1 21.0421 -3.20924 7.07924
51 3 2 22.0124 -3.41097 7.59933
52 3 2 22.8561 -5.40921 7.31428
37 3 1 18.3589 -2.74014 6.40033
38 3 1 19.2935 -1.65445 6.42505
39 3 1 20.4795 -1.91676 7.14642
48 3 2 17.3368 -2.55537 6.04905
49 3 2 18.9303 -0.662755 6.41781
50 3 2 21.1952 -1.08094 7.10714
55 4 3 5.23338 17.8036 8.61943
11 2 1 -12.3422 -23.4228 12.2496
12 2 1 -11.3304 -22.8923 11.3205
13 2 3 -11.2204 -23.4404 10.2139
14 2 3 -10.1 -22.6772 11.9876
24 2 2 -13.3089 -23.3784 11.7966
25 2 2 -12.3606 -22.8139 13.2152
26 2 2 -11.996 -24.4336 12.4221
21 2 1 -7.31366 -23.3493 13.2161
22 2 3 -6.88539 -24.1658 12.3207
23 2 3 -6.6642 -23.3635 14.3935
31 2 2 -6.0056 -22.6744 14.6364
27 2 2 -9.91294 -20.539 10.4691
20 2 1 -7.84517 -22.0308 12.742
16 2 1 -9.12671 -20.5914 11.2284
28 2 2 -8.1047 -18.8213 10.4654
15 2 1 -8.91496 -21.9178 11.7636
17 2 1 -8.00024 -19.7565 11.0257
18 2 1 -6.93699 -19.7837 11.9965
19 2 1 -6.70749 -21.0528 12.6334
29 2 2 -6.02572 -19.1897 11.7212
30 2 2 -6.04443 -21.0767 13.5264
1 1 1 18.7605 6.80709 14.8802
2 1 1 19.3092 7.98133 15.2618
3 1 1 20.5297 8.59743 14.6653
7 1 2 17.8658 6.47047 15.3454
8 1 2 18.7609 8.56268 15.9955
5 1 4 20.581 8.67776 13.2762
10 1 2 21.0706 7.9031 12.6915
4 1 3 21.6235 8.7071 15.2853
6 1 2 19.301 6.22343 14.1652
9 1 2 19.9119 9.28159 12.7655
66 4 2 2.85745 17.9299 9.90853
69 4 2 5.9995 20.9394 9.34204
59 4 1 7.94397 21.6787 9.53569
68 4 2 3.88876 16.6694 10.6551
54 4 1 5.00336 18.3048 9.73903
53 4 1 3.77062 17.8082 10.4763
56 4 3 6.2571 18.4928 10.4535
57 4 1 7.32813 19.3571 9.97395
58 4 1 6.97025 20.7492 9.77711
60 4 1 9.1465 21.478 10.2057
62 4 1 8.64623 19.1738 10.5969
67 4 2 3.60799 18.2967 11.4071
63 4 1 9.2754 17.8518 10.7996
61 4 1 9.57421 20.2036 10.3946
64 4 3 9.50692 17.1001 9.78282
65 4 3 10.1969 17.7391 11.7937
72 4 2 10.4715 20.1569 10.9476
73 4 2 9.99998 17.8782 12.6989
70 4 2 7.70001 22.6999 9.63982
71 4 2 9.91014 22.1383 9.86978
ITEM: TIMESTEP
3200
ITEM: NUMBER OF ATOMS
115
ITEM: BOX BOUNDS pp pp pp
-2.8628399999999999e+01 2.8628399999999999e+01
-2.8628399999999999e+01 2.8628399999999999e+01
-2.8628399999999999e+01 2.8628399999999999e+01
ITEM: ATOMS id mol type x y z
74 5 1 12.9492 -12.6034 -12.5334
75 5 1 13.7466 -11.3473 -12.9076
76 5 3 13.7744 -11.0952 -14.1445
77 5 3 14.8637 -11.1327 -12.157
78 5 1 15.536 -9.9152 -11.9599
87 5 2 11.974 -12.7387 -13.0214
88 5 2 12.7639 -12.5547 -11.4527
89 5 2 13.5137 -13.5954 -12.6843
83 5 1 16.8217 -9.9086 -11.2922
84 5 1 17.7021 -11.097 -11.4868
85 5 3 17.2391 -12.2662 -11.5784
86 5 3 18.9815 -11.073 -11.0277
94 5 2 19.3201 -11.1776 -10.0683
79 5 1 14.6675 -8.763 -11.6468
80 5 1 15.3763 -7.57121 -11.4463
90 5 2 13.7488 -8.61397 -12.1697
91 5 2 14.7749 -6.68517 -11.1088
81 5 1 16.6691 -7.60298 -10.8661
82 5 1 17.4502 -8.68525 -11.2872
92 5 2 17.1736 -6.66341 -10.7421
93 5 2 18.1885 -8.44518 -12.0169
97 6 3 16.4647 18.3675 -9.49361
95 6 1 15.8785 16.4734 -8.17277
108 6 2 14.8616 16.3931 -8.72706
109 6 2 15.6323 16.1988 -7.10468
110 6 2 16.6351 15.7025 -8.55235
96 6 1 16.4625 17.9008 -8.31574
98 6 3 17.534 18.172 -7.46647
99 6 1 18.3869 19.2834 -7.65441
100 6 1 17.9184 20.5901 -8.14816
101 6 1 18.8674 21.6224 -8.24041
102 6 1 19.8346 21.6848 -7.2238
103 6 1 20.3828 20.451 -6.76941
104 6 1 19.5164 19.334 -6.72756
105 6 1 20.0505 17.9675 -6.13177
106 6 3 19.2959 17.0614 -5.68956
107 6 3 21.339 18.0487 -5.51815
111 6 2 17.2237 20.6411 -8.94153
114 6 2 20.9689 20.4865 -5.88366
115 6 2 21.8362 17.1358 -5.19146
112 6 2 18.4636 22.572 -8.58443
113 6 2 20.633 22.4535 -7.28821
32 3 1 15.9275 -6.37565 6.35445
45 3 2 14.933 -6.38856 5.77462
46 3 2 15.7262 -6.25832 7.41064
47 3 2 16.5341 -7.31033 6.19695
33 3 1 16.7786 -5.27926 5.86947
34 3 3 16.8851 -5.24411 4.63476
35 3 3 17.8632 -5.05713 6.73217
36 3 1 18.8418 -4.01481 6.62005
41 3 1 20.1419 -4.2765 7.17167
42 3 1 20.7339 -5.68905 7.02327
43 3 3 20.4113 -6.37281 5.95699
44 3 3 22.0453 -5.86044 7.61217
40 3 1 21.0602 -3.21605 6.97348
51 3 2 21.938 -3.36089 7.56612
52 3 2 22.7553 -5.41777 7.11618
37 3 1 18.3629 -2.68735 6.49271
38 3 1 19.3178 -1.6871 6.33601
39 3 1 20.495 -1.89739 7.02519
48 3 2 17.5146 -2.48852 5.89305
49 3 2 18.9343 -0.694141 6.38438
50 3 2 21.1974 -1.0453 7.08225
55 4 3 5.12351 17.7389 8.5144
11 2 1 -12.2456 -23.4125 12.2947
12 2 1 -11.1814 -22.8846 11.2899
13 2 3 -11.2766 -23.5012 10.2174
14 2 3 -10.015 -22.6522 11.8886
24 2 2 -13.2673 -23.4674 11.8162
25 2 2 -12.3618 -22.7306 13.1788
26 2 2 -11.8988 -24.4394 12.6274
21 2 1 -7.40681 -23.3134 13.1492
22 2 3 -6.82811 -24.1199 12.2749
23 2 3 -6.75779 -23.425 14.4229
31 2 2 -5.65617 -23.288 14.3648
27 2 2 -9.76799 -20.3145 10.3133
20 2 1 -7.87012 -21.9712 12.6297
16 2 1 -9.07535 -20.4862 11.1637
28 2 2 -8.01287 -18.7 10.7861
15 2 1 -8.93785 -21.8482 11.6284
17 2 1 -7.90348 -19.7382 11.0482
18 2 1 -6.95684 -19.8627 11.9908
19 2 1 -6.79729 -21.0542 12.5886
29 2 2 -6.06177 -19.2358 11.7323
30 2 2 -5.99542 -21.1453 13.4007
1 1 1 18.7671 6.88033 14.8133
2 1 1 19.3752 7.98372 15.2723
3 1 1 20.572 8.5135 14.6541
7 1 2 17.9125 6.49931 15.3012
8 1 2 19.0106 8.43998 16.2308
5 1 4 20.5851 8.67393 13.2052
10 1 2 20.947 8.02213 12.5438
4 1 3 21.635 8.69142 15.2979
6 1 2 19.083 6.30393 13.942
9 1 2 20.2219 9.57608 12.7194
66 4 2 2.92739 18.1052 9.85428
69 4 2 5.89066 20.9443 9.42009
59 4 1 7.87421 21.7402 9.57262
68 4 2 3.88337 16.726 10.5204
54 4 1 5.01494 18.2769 9.64185
53 4 1 3.83568 17.8053 10.3723
56 4 3 6.24743 18.5436 10.3406
57 4 1 7.39469 19.3834 9.94989
58 4 1 6.95517 20.77 9.79401
60 4 1 9.19058 21.5566 10.1969
62 4 1 8.65076 19.2056 10.5997
67 4 2 3.71825 18.3089 11.3664
63 4 1 9.27177 17.8591 10.8091
61 4 1 9.62095 20.2516 10.3716
64 4 3 9.4696 17.0668 9.80259
65 4 3 10.187 17.6917 11.8592
72 4 2 10.584 20.1854 10.9226
73 4 2 9.83616 17.847 12.8374
70 4 2 7.69609 22.7126 9.14618
71 4 2 9.96218 22.313 10.1674
ITEM: TIMESTEP
3220
ITEM: NUMBER OF ATOMS
115
ITEM: BOX BOUNDS pp pp pp
-2.8628399999999999e+01 2.8628399999999999e+01
-2.8628399999999999e+01 2.8628399999999999e+01
-2.8628399999999999e+01 2.8628399999999999e+01
ITEM: ATOMS id mol type x y z
74 5 1 12.873 -12.5617 -12.5706
75 5 1 13.6353 -11.361 -12.9484
76 5 3 13.7426 -11.1273 -14.1845
77 5 3 14.8206 -11.1225 -12.2585
78 5 1 15.4805 -9.90209 -11.9692
87 5 2 11.8698 -12.5509 -13.0839
88 5 2 12.6936 -12.5967 -11.4637
89 5 2 13.3861 -13.4639 -12.8019
83 5 1 16.7404 -10.0302 -11.2729
84 5 1 17.6869 -11.2103 -11.5626
85 5 3 17.2273 -12.3923 -11.7016
86 5 3 18.9978 -11.1156 -11.0001
94 5 2 19.1744 -11.0749 -10.0064
79 5 1 14.751 -8.67328 -11.6294
80 5 1 15.4603 -7.47032 -11.4076
90 5 2 13.9183 -8.51858 -12.2097
91 5 2 14.808 -6.7557 -11.0175
81 5 1 16.7676 -7.56499 -10.8787
82 5 1 17.4723 -8.74711 -11.3342
92 5 2 17.2576 -6.64311 -10.7687
93 5 2 18.0312 -8.53945 -12.1679
97 6 3 16.5811 18.2591 -9.53251
95 6 1 15.8741 16.4767 -8.25091
108 6 2 14.8461 16.4046 -8.74268
109 6 2 15.7585 16.2763 -7.14869
110 6 2 16.6039 15.7694 -8.63002
96 6 1 16.446 17.8403 -8.38513
98 6 3 17.3998 18.2434 -7.49713
99 6 1 18.3259 19.2923 -7.56873
100 6 1 17.9454 20.5471 -8.13884
101 6 1 18.8285 21.6004 -8.15998
102 6 1 19.9326 21.711 -7.27867
103 6 1 20.3326 20.4733 -6.80792
104 6 1 19.448 19.3276 -6.68214
105 6 1 20.0522 18.0553 -6.15883
106 6 3 19.2796 17.2411 -5.67898
107 6 3 21.2882 18.0674 -5.50255
111 6 2 17.4041 20.4422 -9.06073
114 6 2 21.3062 20.4378 -6.38807
115 6 2 21.6499 17.107 -5.31764
112 6 2 18.4369 22.5179 -8.62101
113 6 2 20.6865 22.4229 -7.41233
32 3 1 15.8515 -6.27366 6.33946
45 3 2 14.9163 -6.27671 5.70021
46 3 2 15.629 -6.18138 7.39548
47 3 2 16.3407 -7.24436 6.27998
33 3 1 16.75 -5.22301 5.84162
34 3 3 16.9327 -5.17441 4.60444
35 3 3 17.8881 -5.12098 6.59521
36 3 1 18.8931 -4.14994 6.54856
41 3 1 20.1635 -4.33707 7.17575
42 3 1 20.8126 -5.62457 6.98971
43 3 3 20.5835 -6.28155 5.94785
44 3 3 22.0091 -5.94617 7.60153
40 3 1 21.0845 -3.15204 7.02997
51 3 2 22.1327 -3.40923 7.28237
52 3 2 22.8738 -5.60785 7.19491
37 3 1 18.4686 -2.79894 6.50568
38 3 1 19.416 -1.74704 6.3801
39 3 1 20.6315 -1.86804 7.00512
48 3 2 17.4126 -2.56702 6.32937
49 3 2 19.0143 -0.670624 6.30149
50 3 2 21.338 -1.06001 6.7605
55 4 3 5.08702 17.7577 8.46352
11 2 1 -12.2229 -23.5431 12.2701
12 2 1 -11.1991 -22.9756 11.3176
13 2 3 -11.1884 -23.4689 10.2132
14 2 3 -9.91802 -22.7154 11.8972
24 2 2 -13.2409 -23.3396 11.8205
25 2 2 -12.1031 -22.9991 13.1899
26 2 2 -12.075 -24.6342 12.5055
21 2 1 -7.45458 -23.2901 13.1777
22 2 3 -6.91497 -24.0357 12.2693
23 2 3 -6.84992 -23.4537 14.39
31 2 2 -5.89395 -23.1638 14.466
27 2 2 -9.85432 -20.2335 10.4346
20 2 1 -7.92841 -21.9446 12.6593
16 2 1 -9.08804 -20.3776 11.174
28 2 2 -8.00156 -18.7338 10.4484
15 2 1 -8.84481 -21.8073 11.5727
17 2 1 -7.91222 -19.6231 11.0144
18 2 1 -6.85711 -19.7555 12.1051
19 2 1 -6.78809 -21.0372 12.6752
29 2 2 -5.96847 -19.1692 12.0343
30 2 2 -6.10336 -21.0769 13.4993
1 1 1 18.7607 6.97349 14.7074
2 1 1 19.4707 7.94001 15.2744
3 1 1 20.5906 8.41921 14.59
7 1 2 17.8837 6.5505 15.2799
8 1 2 19.2347 8.32452 16.2766
5 1 4 20.5861 8.8223 13.2645
10 1 2 20.6911 8.13541 12.4891
4 1 3 21.6043 8.66136 15.2985
6 1 2 18.967 6.60304 13.6962
9 1 2 20.7774 9.80363 13.0579
66 4 2 2.9173 17.9296 9.81451
69 4 2 6.02753 20.8828 9.45153
59 4 1 7.91612 21.7424 9.49603
68 4 2 4.02071 16.7186 10.607
54 4 1 5.07155 18.2733 9.59695
53 4 1 3.86911 17.8263 10.3458
56 4 3 6.35002 18.522 10.2575
57 4 1 7.36422 19.4267 9.87483
58 4 1 6.99507 20.7874 9.817
60 4 1 9.13181 21.6845 10.2043
62 4 1 8.65509 19.1977 10.5485
67 4 2 3.67867 18.4336 11.2852
63 4 1 9.20693 17.8124 10.8356
61 4 1 9.61691 20.3024 10.3291
64 4 3 9.47443 17.0495 9.86466
65 4 3 10.1633 17.6354 11.8514
72 4 2 10.5907 20.1921 10.7155
73 4 2 9.87053 17.9682 12.8096
70 4 2 7.52903 22.7601 9.38603
71 4 2 9.88777 22.397 9.88277
ITEM: TIMESTEP
3240
ITEM: NUMBER OF ATOMS
115
ITEM: BOX BOUNDS pp pp pp
-2.8628399999999999e+01 2.8628399999999999e+01
-2.8628399999999999e+01 2.8628399999999999e+01
-2.8628399999999999e+01 2.8628399999999999e+01
ITEM: ATOMS id mol type x y z
74 5 1 12.7866 -12.483 -12.5339
75 5 1 13.5865 -11.3611 -13.0362
76 5 3 13.7045 -11.1429 -14.2998
77 5 3 14.6714 -11.0729 -12.1494
78 5 1 15.5198 -9.89739 -12.0552
87 5 2 11.763 -12.5835 -13.1417
88 5 2 12.5095 -12.5436 -11.4854
89 5 2 13.2707 -13.429 -12.7567
83 5 1 16.7559 -10.0585 -11.3596
84 5 1 17.6647 -11.2538 -11.5121
85 5 3 17.2402 -12.431 -11.698
86 5 3 18.917 -11.1858 -10.936
94 5 2 19.1308 -11.4178 -10.0003
79 5 1 14.8218 -8.73084 -11.6875
80 5 1 15.5397 -7.55404 -11.4582
90 5 2 13.8147 -8.6796 -12.1592
91 5 2 14.9779 -6.65164 -11.1832
81 5 1 16.7758 -7.73748 -10.8599
82 5 1 17.4935 -8.87602 -11.3643
92 5 2 17.3992 -6.78254 -10.6657
93 5 2 17.8624 -8.59451 -12.3043
97 6 3 16.6731 18.16 -9.71047
95 6 1 15.8407 16.5096 -8.26689
108 6 2 14.9498 16.3857 -8.94638
109 6 2 15.5913 16.4012 -7.23013
110 6 2 16.5454 15.754 -8.55129
96 6 1 16.4434 17.8767 -8.46387
98 6 3 17.3611 18.3443 -7.45006
99 6 1 18.4099 19.3126 -7.60994
100 6 1 17.9636 20.5533 -8.11558
101 6 1 18.8473 21.653 -8.17203
102 6 1 19.8891 21.6902 -7.33074
103 6 1 20.4121 20.4618 -6.96063
104 6 1 19.4552 19.3821 -6.60889
105 6 1 20.0119 18.0734 -6.155
106 6 3 19.2197 17.2607 -5.70281
107 6 3 21.2431 18.1271 -5.47675
111 6 2 17.0706 20.4851 -8.79826
114 6 2 21.2122 20.5415 -6.25643
115 6 2 21.784 17.3315 -5.34347
112 6 2 18.3407 22.648 -8.23514
113 6 2 20.6718 22.4503 -7.60849
32 3 1 15.7553 -6.17207 6.37455
45 3 2 14.837 -6.05378 5.84232
46 3 2 15.5774 -5.90056 7.3911
47 3 2 16.0519 -7.26159 6.41838
33 3 1 16.8296 -5.32403 5.77252
34 3 3 16.9999 -5.15578 4.50938
35 3 3 17.9328 -5.10419 6.57798
36 3 1 18.9244 -4.10925 6.47936
41 3 1 20.2132 -4.31407 7.0782
42 3 1 20.7671 -5.68703 6.98224
43 3 3 20.6371 -6.29306 5.8787
44 3 3 21.9692 -6.02883 7.71975
40 3 1 21.1411 -3.18595 6.96754
51 3 2 22.1747 -3.31546 7.37277
52 3 2 22.9209 -5.91496 7.35026
37 3 1 18.4904 -2.69828 6.63582
38 3 1 19.4252 -1.68898 6.33822
39 3 1 20.685 -1.87895 6.9944
48 3 2 17.5889 -2.4367 6.15959
49 3 2 19.0539 -0.691694 6.32335
50 3 2 21.3943 -1.17168 6.82996
55 4 3 5.15453 17.7936 8.4393
11 2 1 -12.2232 -23.5209 12.2684
12 2 1 -11.1624 -23.0238 11.395
13 2 3 -11.2322 -23.4095 10.2165
14 2 3 -9.84762 -22.773 11.9024
24 2 2 -13.2104 -23.3243 11.8172
25 2 2 -12.1513 -23.12 13.361
26 2 2 -11.9931 -24.6567 12.3103
21 2 1 -7.50499 -23.2866 13.0838
22 2 3 -6.95758 -24.0338 12.2134
23 2 3 -7.00531 -23.3844 14.4055
31 2 2 -6.18748 -22.8678 14.7236
27 2 2 -9.75943 -20.3524 10.2861
20 2 1 -7.86584 -21.9208 12.6581
16 2 1 -9.03461 -20.4684 11.1339
28 2 2 -8.08339 -18.7465 10.6837
15 2 1 -8.84123 -21.8096 11.6525
17 2 1 -7.8688 -19.7186 11.0218
18 2 1 -6.97559 -19.6844 12.0994
19 2 1 -6.76982 -20.9296 12.6883
29 2 2 -6.11895 -19.051 11.8867
30 2 2 -6.08281 -20.8752 13.5405
1 1 1 18.6707 6.97907 14.615
2 1 1 19.4705 7.85324 15.2835
3 1 1 20.6926 8.48727 14.6407
7 1 2 17.8254 6.54205 15.0952
8 1 2 19.1326 8.13117 16.174
5 1 4 20.6523 8.85911 13.2753
10 1 2 20.297 8.12482 12.5675
4 1 3 21.7416 8.67137 15.3264
6 1 2 18.9513 6.7339 13.7013
9 1 2 20.7285 9.80467 13.034
66 4 2 2.91527 18.0096 9.79219
69 4 2 6.02962 20.9181 9.35611
59 4 1 7.96762 21.7812 9.61253
68 4 2 3.98131 16.7426 10.7022
54 4 1 5.10032 18.2716 9.60493
53 4 1 3.9309 17.8076 10.3825
56 4 3 6.31021 18.5331 10.2725
57 4 1 7.37094 19.4135 9.85816
58 4 1 6.96877 20.7706 9.86094
60 4 1 9.18755 21.6203 10.1689
62 4 1 8.72184 19.2629 10.5402
67 4 2 3.8226 18.4166 11.2752
63 4 1 9.27685 17.8787 10.8624
61 4 1 9.6393 20.3127 10.2819
64 4 3 9.48455 17.1121 9.86617
65 4 3 10.112 17.6193 11.8683
72 4 2 10.4681 20.2514 10.9537
73 4 2 9.97566 17.9826 12.7973
70 4 2 7.65945 22.8378 9.56343
71 4 2 9.9307 22.3686 10.0833
ITEM: TIMESTEP
3260
ITEM: NUMBER OF ATOMS
115
ITEM: BOX BOUNDS pp pp pp
-2.8628399999999999e+01 2.8628399999999999e+01
-2.8628399999999999e+01 2.8628399999999999e+01
-2.8628399999999999e+01 2.8628399999999999e+01
ITEM: ATOMS id mol type x y z
74 5 1 12.7893 -12.435 -12.588
75 5 1 13.6216 -11.3245 -13.0314
76 5 3 13.7181 -11.1216 -14.2464
77 5 3 14.6935 -11.1569 -12.1951
78 5 1 15.4907 -9.99493 -12.0698
87 5 2 11.7319 -12.4816 -13.119
88 5 2 12.6605 -12.4487 -11.4675
89 5 2 13.2871 -13.3638 -12.8013
83 5 1 16.7293 -10.1226 -11.3511
84 5 1 17.6927 -11.2308 -11.5939
85 5 3 17.2668 -12.4299 -11.6899
86 5 3 18.9452 -11.2175 -10.9759
94 5 2 19.009 -11.4883 -9.94898
79 5 1 14.8293 -8.76569 -11.7136
80 5 1 15.6032 -7.61795 -11.5445
90 5 2 13.8518 -8.58974 -12.1661
91 5 2 15.1098 -6.72707 -11.2323
81 5 1 16.8369 -7.77629 -10.9246
82 5 1 17.5023 -8.89299 -11.3885
92 5 2 17.4981 -6.98603 -10.6389
93 5 2 18.0591 -8.66851 -12.2774
97 6 3 16.7407 18.1704 -9.71454
95 6 1 15.814 16.5843 -8.24318
108 6 2 15.0674 16.435 -9.06837
109 6 2 15.3785 16.5519 -7.21217
110 6 2 16.5904 15.7265 -8.35211
96 6 1 16.5231 17.8878 -8.46871
98 6 3 17.3714 18.3681 -7.48134
99 6 1 18.3907 19.3668 -7.62037
100 6 1 17.8914 20.6075 -8.103
101 6 1 18.823 21.6552 -8.23236
102 6 1 19.8972 21.6647 -7.36592
103 6 1 20.4345 20.3951 -6.88639
104 6 1 19.4616 19.3936 -6.61003
105 6 1 20.0024 18.0816 -6.03739
106 6 3 19.1649 17.2771 -5.63398
107 6 3 21.2986 18.1499 -5.42811
111 6 2 17.1146 20.5326 -8.87856
114 6 2 21.3709 20.3779 -6.43418
115 6 2 21.8268 17.3111 -5.17697
112 6 2 18.4673 22.6094 -8.69371
113 6 2 20.5792 22.5189 -7.50564
32 3 1 15.7733 -6.12743 6.44036
45 3 2 14.7884 -6.06002 5.90134
46 3 2 15.5837 -5.76724 7.49775
47 3 2 16.1536 -7.18093 6.41358
33 3 1 16.824 -5.21489 5.78639
34 3 3 17.0774 -5.29413 4.52043
35 3 3 17.974 -5.08783 6.60783
36 3 1 18.9249 -4.0237 6.54359
41 3 1 20.25 -4.25698 7.043
42 3 1 20.8149 -5.68308 6.90702
43 3 3 20.6119 -6.28171 5.79281
44 3 3 21.8866 -6.08448 7.77084
40 3 1 21.2047 -3.27738 6.89532
51 3 2 22.0952 -3.37481 7.45466
52 3 2 22.7895 -5.79265 7.65233
37 3 1 18.4599 -2.62143 6.52156
38 3 1 19.4611 -1.65562 6.34261
39 3 1 20.7116 -1.93754 6.91676
48 3 2 17.4598 -2.39539 6.27179
49 3 2 19.1354 -0.692354 6.31573
50 3 2 21.42 -1.07617 6.90527
55 4 3 5.24556 17.7821 8.4692
11 2 1 -12.2077 -23.463 12.2734
12 2 1 -11.1403 -22.9466 11.3839
13 2 3 -11.1678 -23.2822 10.1747
14 2 3 -9.87941 -22.7999 11.9532
24 2 2 -13.192 -23.2156 11.8144
25 2 2 -12.1065 -22.8513 13.2595
26 2 2 -11.9918 -24.5163 12.532
21 2 1 -7.42818 -23.2239 13.0715
22 2 3 -6.98263 -24.0543 12.2257
23 2 3 -7.12749 -23.3354 14.4283
31 2 2 -6.45593 -22.6696 14.8865
27 2 2 -9.74551 -20.5361 10.252
20 2 1 -7.79695 -21.902 12.7005
16 2 1 -9.09791 -20.6129 11.1213
28 2 2 -8.185 -18.8287 10.471
15 2 1 -8.76751 -21.8976 11.6982
17 2 1 -7.98905 -19.6971 11.0494
18 2 1 -7.00086 -19.7098 12.0619
19 2 1 -6.75032 -20.9852 12.6486
29 2 2 -6.31907 -18.9183 12.1268
30 2 2 -5.91696 -21.0603 13.3881
1 1 1 18.658 7.09552 14.5992
2 1 1 19.4826 7.89688 15.2301
3 1 1 20.7092 8.48734 14.6521
7 1 2 17.8369 6.66221 15.2071
8 1 2 19.2114 7.9704 16.2267
5 1 4 20.7017 8.86389 13.2581
10 1 2 20.4512 8.19554 12.5031
4 1 3 21.7912 8.65115 15.2347
6 1 2 18.7366 6.83001 13.5539
9 1 2 20.9909 9.85104 12.9845
66 4 2 3.07447 17.9846 9.89234
69 4 2 5.96304 20.9227 9.24861
59 4 1 7.86229 21.8018 9.62778
68 4 2 4.09708 16.7434 10.6708
54 4 1 5.1866 18.332 9.61387
53 4 1 3.99192 17.8265 10.4582
56 4 3 6.41459 18.5504 10.3053
57 4 1 7.43828 19.4271 9.99163
58 4 1 6.97269 20.7912 9.7005
60 4 1 9.16678 21.5441 10.1168
62 4 1 8.70151 19.2227 10.6299
67 4 2 3.86857 18.295 11.4309
63 4 1 9.28114 17.8867 10.8313
61 4 1 9.65765 20.2665 10.4052
64 4 3 9.48874 17.1178 9.79164
65 4 3 10.1723 17.6721 11.958
72 4 2 10.7263 20.2007 10.7799
73 4 2 9.95733 17.929 12.8895
70 4 2 7.55423 22.8462 9.71219
71 4 2 9.9143 22.2549 9.81522
ITEM: TIMESTEP
3280
ITEM: NUMBER OF ATOMS
115
ITEM: BOX BOUNDS pp pp pp
-2.8628399999999999e+01 2.8628399999999999e+01
-2.8628399999999999e+01 2.8628399999999999e+01
-2.8628399999999999e+01 2.8628399999999999e+01
ITEM: ATOMS id mol type x y z
74 5 1 12.7886 -12.5487 -12.6819
75 5 1 13.5904 -11.3118 -13.0248
76 5 3 13.7829 -11.1648 -14.2462
77 5 3 14.7611 -11.1799 -12.1982
78 5 1 15.5658 -10.0081 -12.0726
87 5 2 11.8219 -12.5352 -13.1586
88 5 2 12.6027 -12.6174 -11.5354
89 5 2 13.2386 -13.5361 -12.8523
83 5 1 16.7926 -10.1565 -11.3324
84 5 1 17.7559 -11.2393 -11.5864
85 5 3 17.242 -12.4214 -11.6832
86 5 3 18.9771 -11.213 -11.0018
94 5 2 19.0579 -11.5296 -10.1198
79 5 1 14.8254 -8.80791 -11.773
80 5 1 15.6012 -7.60364 -11.5433
90 5 2 13.9048 -8.70977 -12.3044
91 5 2 15.0658 -6.71369 -11.1913
81 5 1 16.8011 -7.80339 -10.9095
82 5 1 17.5534 -8.92634 -11.3612
92 5 2 17.4692 -6.92206 -10.8126
93 5 2 18.2548 -8.69355 -12.194
97 6 3 16.7979 18.165 -9.73513
95 6 1 15.8446 16.5979 -8.23873
108 6 2 15.024 16.371 -8.88113
109 6 2 15.4629 16.5698 -7.13327
110 6 2 16.6641 15.8221 -8.37796
96 6 1 16.427 17.9432 -8.51193
98 6 3 17.3543 18.2761 -7.56525
99 6 1 18.2911 19.345 -7.66558
100 6 1 17.918 20.6584 -8.0681
101 6 1 18.8656 21.6561 -8.29745
102 6 1 19.906 21.6991 -7.36727
103 6 1 20.3205 20.4498 -6.90558
104 6 1 19.4234 19.4251 -6.66424
105 6 1 20.0147 18.0887 -5.96349
106 6 3 19.2125 17.2273 -5.4713
107 6 3 21.2981 18.195 -5.34176
111 6 2 17.2058 20.6966 -8.83481
114 6 2 20.947 20.5938 -6.0451
115 6 2 21.6585 17.3143 -5.00619
112 6 2 18.4926 22.6132 -8.61878
113 6 2 20.6636 22.3913 -7.56648
32 3 1 15.8121 -6.08899 6.43797
45 3 2 14.837 -6.05729 5.88551
46 3 2 15.6391 -5.73455 7.45644
47 3 2 16.2147 -7.07444 6.47028
33 3 1 16.8564 -5.15793 5.87436
34 3 3 17.0896 -5.3723 4.65983
35 3 3 17.9457 -5.00384 6.64407
36 3 1 18.9031 -3.94585 6.53429
41 3 1 20.2278 -4.22843 7.07982
42 3 1 20.7856 -5.67639 6.90657
43 3 3 20.7282 -6.16661 5.72693
44 3 3 21.7518 -6.09686 7.72145
40 3 1 21.1723 -3.23252 6.7308
51 3 2 22.2034 -3.36188 6.72881
52 3 2 22.6618 -5.77237 7.63937
37 3 1 18.4216 -2.61767 6.55242
38 3 1 19.5022 -1.68784 6.2995
39 3 1 20.7624 -1.90127 6.82529
48 3 2 17.6107 -2.46661 5.83992
49 3 2 19.1956 -0.656195 6.37113
50 3 2 21.4966 -1.1335 6.42487
55 4 3 5.29964 17.7398 8.54536
11 2 1 -12.1096 -23.4825 12.2099
12 2 1 -11.0518 -22.799 11.3064
13 2 3 -11.0677 -23.17 10.1054
14 2 3 -9.83331 -22.7387 11.9362
24 2 2 -13.109 -23.4405 11.6924
25 2 2 -12.1181 -23.0012 13.1548
26 2 2 -11.7954 -24.4773 12.4019
21 2 1 -7.32471 -23.1954 13.2049
22 2 3 -6.96569 -24.0562 12.3239
23 2 3 -7.09569 -23.3885 14.6021
31 2 2 -6.42962 -22.8235 15.0643
27 2 2 -9.81185 -20.5916 10.3143
20 2 1 -7.70816 -21.8844 12.6851
16 2 1 -9.12416 -20.6503 11.1645
28 2 2 -8.39239 -18.8035 10.5886
15 2 1 -8.80664 -21.8746 11.7093
17 2 1 -8.12094 -19.7381 11.073
18 2 1 -7.06821 -19.692 12.0734
19 2 1 -6.69502 -20.9179 12.5444
29 2 2 -6.26516 -19.0655 11.7516
30 2 2 -5.8894 -20.9216 13.2284
1 1 1 18.6348 7.18239 14.6842
2 1 1 19.6083 7.91244 15.228
3 1 1 20.7926 8.44073 14.5677
7 1 2 17.7793 6.89985 15.2462
8 1 2 19.4024 8.24502 16.3212
5 1 4 20.7355 8.91263 13.167
10 1 2 20.6847 8.29109 12.3555
4 1 3 21.8182 8.61881 15.2558
6 1 2 18.7619 6.78581 13.6331
9 1 2 21.2325 9.85017 12.9367
66 4 2 3.22959 18.0126 9.86507
69 4 2 5.91007 20.8678 9.30893
59 4 1 7.80229 21.7918 9.61398
68 4 2 4.2271 16.8121 10.8348
54 4 1 5.21557 18.2937 9.63997
53 4 1 4.14548 17.8863 10.4352
56 4 3 6.39491 18.4894 10.3491
57 4 1 7.41302 19.3683 9.97296
58 4 1 6.89723 20.7465 9.71346
60 4 1 9.16607 21.5686 10.1275
62 4 1 8.67633 19.249 10.7367
67 4 2 4.13101 18.5708 11.2889
63 4 1 9.25734 17.8562 10.8296
61 4 1 9.64392 20.2398 10.3901
64 4 3 9.49058 17.1837 9.75478
65 4 3 10.1048 17.6199 11.8881
72 4 2 10.645 20.195 10.8141
73 4 2 9.85708 17.9138 12.8567
70 4 2 7.46752 22.8423 9.58347
71 4 2 9.95515 22.279 9.83071
ITEM: TIMESTEP
3300
ITEM: NUMBER OF ATOMS
115
ITEM: BOX BOUNDS pp pp pp
-2.8628399999999999e+01 2.8628399999999999e+01
-2.8628399999999999e+01 2.8628399999999999e+01
-2.8628399999999999e+01 2.8628399999999999e+01
ITEM: ATOMS id mol type x y z
74 5 1 12.7436 -12.5533 -12.7008
75 5 1 13.6482 -11.3544 -13.0116
76 5 3 13.7763 -11.2329 -14.2864
77 5 3 14.7731 -11.1136 -12.1448
78 5 1 15.6099 -9.9677 -12.1156
87 5 2 11.7273 -12.5015 -13.1075
88 5 2 12.5889 -12.6528 -11.6416
89 5 2 13.1866 -13.4827 -13.0607
83 5 1 16.8818 -10.1014 -11.4093
84 5 1 17.7927 -11.2468 -11.5526
85 5 3 17.2214 -12.4293 -11.6699
86 5 3 19.0962 -11.2455 -11.0285
94 5 2 19.2775 -11.1814 -10.0605
79 5 1 14.8501 -8.79292 -11.85
80 5 1 15.5083 -7.67027 -11.5632
90 5 2 13.8975 -8.67268 -12.3685
91 5 2 14.8873 -6.82729 -11.2092
81 5 1 16.782 -7.78063 -10.9917
82 5 1 17.5263 -8.86982 -11.372
92 5 2 17.1798 -6.93002 -10.4766
93 5 2 18.2118 -8.6512 -12.1654
97 6 3 16.6092 18.2018 -9.73961
95 6 1 15.8971 16.6234 -8.35487
108 6 2 15.1534 16.325 -9.1676
109 6 2 15.383 16.5792 -7.42936
110 6 2 16.7233 15.9042 -8.35539
96 6 1 16.3959 17.9644 -8.49274
98 6 3 17.4298 18.2822 -7.59967
99 6 1 18.3417 19.3512 -7.66592
100 6 1 17.8788 20.6875 -8.0574
101 6 1 18.8517 21.6228 -8.34427
102 6 1 19.8881 21.7374 -7.36578
103 6 1 20.3399 20.4638 -6.7871
104 6 1 19.4312 19.4008 -6.65448
105 6 1 19.9892 18.1249 -6.01993
106 6 3 19.278 17.3099 -5.41563
107 6 3 21.1657 18.2152 -5.31122
111 6 2 16.9721 20.7431 -8.59377
114 6 2 21.1505 20.5857 -5.99889
115 6 2 21.7459 17.4772 -5.24284
112 6 2 18.4456 22.5803 -8.69204
113 6 2 20.5359 22.5395 -7.52148
32 3 1 15.7655 -6.03408 6.49458
45 3 2 14.8487 -5.96968 5.89944
46 3 2 15.5867 -5.74566 7.57254
47 3 2 16.1707 -7.12243 6.41763
33 3 1 16.8089 -5.15644 5.89682
34 3 3 17.0558 -5.33297 4.66622
35 3 3 17.9584 -4.96775 6.73714
36 3 1 18.9307 -3.98358 6.50341
41 3 1 20.2171 -4.21546 6.98382
42 3 1 20.6891 -5.57943 6.85342
43 3 3 20.8261 -6.04711 5.70398
44 3 3 21.7328 -6.00214 7.66299
40 3 1 21.2001 -3.22522 6.62466
51 3 2 22.2313 -3.36701 6.97511
52 3 2 22.6815 -5.93118 7.18407
37 3 1 18.6285 -2.62209 6.52016
38 3 1 19.5619 -1.58278 6.27455
39 3 1 20.7743 -1.88268 6.71448
48 3 2 17.6374 -2.38396 6.17866
49 3 2 19.0838 -0.569638 6.34037
50 3 2 21.5104 -1.17471 6.49351
55 4 3 5.30375 17.7029 8.45368
11 2 1 -12.0182 -23.4399 12.1718
12 2 1 -11.039 -22.7905 11.3719
13 2 3 -10.9404 -23.1538 10.1783
14 2 3 -9.81543 -22.7703 12.0396
24 2 2 -13.085 -23.4193 11.6921
25 2 2 -11.9466 -23.055 13.2448
26 2 2 -11.6976 -24.5214 12.1768
21 2 1 -7.29033 -23.1219 13.306
22 2 3 -7.0139 -24.0749 12.5525
23 2 3 -7.00233 -23.3588 14.6694
31 2 2 -6.10701 -23.0607 15.1206
27 2 2 -9.86234 -20.6097 10.5682
20 2 1 -7.75295 -21.7909 12.7556
16 2 1 -9.12934 -20.6145 11.2959
28 2 2 -8.50075 -18.6038 10.7377
15 2 1 -8.77161 -21.8596 11.8111
17 2 1 -8.20176 -19.6204 11.0137
18 2 1 -7.13683 -19.6354 11.8958
19 2 1 -6.72213 -20.8238 12.4503
29 2 2 -6.49936 -18.7619 11.7621
30 2 2 -5.92986 -20.7956 13.1462
1 1 1 18.6238 7.23719 14.7165
2 1 1 19.6344 7.9971 15.2171
3 1 1 20.8751 8.42076 14.5278
7 1 2 17.6998 7.03586 15.1873
8 1 2 19.5483 8.28801 16.2212
5 1 4 20.7686 8.89682 13.1896
10 1 2 20.343 8.36787 12.4091
4 1 3 21.8467 8.63015 15.2778
6 1 2 18.7149 6.85179 13.7084
9 1 2 21.1018 9.75187 12.8504
66 4 2 3.1326 17.8582 9.89697
69 4 2 6.21374 20.7152 9.0252
59 4 1 7.88834 21.7426 9.60453
68 4 2 4.20455 16.7892 10.9824
54 4 1 5.2349 18.2534 9.6336
53 4 1 4.06005 17.8444 10.5217
56 4 3 6.48089 18.5416 10.3951
57 4 1 7.47392 19.3767 10.0045
58 4 1 7.01317 20.6995 9.73651
60 4 1 9.08925 21.5844 10.1992
62 4 1 8.66581 19.2499 10.654
67 4 2 4.04986 18.5818 11.389
63 4 1 9.18389 17.9089 10.7674
61 4 1 9.60039 20.264 10.3001
64 4 3 9.499 17.284 9.729
65 4 3 10.0346 17.5269 11.7741
72 4 2 10.5238 20.2556 10.8116
73 4 2 9.95648 17.9098 12.6867
70 4 2 7.49937 22.7148 9.50215
71 4 2 9.79133 22.2891 9.87542
ITEM: TIMESTEP
3320
ITEM: NUMBER OF ATOMS
115
ITEM: BOX BOUNDS pp pp pp
-2.8628399999999999e+01 2.8628399999999999e+01
-2.8628399999999999e+01 2.8628399999999999e+01
-2.8628399999999999e+01 2.8628399999999999e+01
ITEM: ATOMS id mol type x y z
74 5 1 12.7256 -12.4597 -12.6431
75 5 1 13.6624 -11.3836 -13.0891
76 5 3 13.7396 -11.1691 -14.3288
77 5 3 14.7377 -11.1374 -12.1759
78 5 1 15.5868 -10.0051 -12.1375
87 5 2 11.7312 -12.396 -13.0903
88 5 2 12.534 -12.3664 -11.5946
89 5 2 13.1929 -13.4312 -12.9439
83 5 1 16.871 -10.0657 -11.4496
84 5 1 17.7731 -11.2429 -11.6312
85 5 3 17.2454 -12.4188 -11.5889
86 5 3 19.0934 -11.1784 -11.045
94 5 2 19.1747 -11.1693 -9.99473
79 5 1 14.8624 -8.76902 -11.8673
80 5 1 15.4788 -7.58904 -11.5506
90 5 2 13.9386 -8.62876 -12.4698
91 5 2 14.7843 -6.74732 -11.3262
81 5 1 16.7287 -7.66337 -10.8477
82 5 1 17.5251 -8.79468 -11.4422
92 5 2 17.2529 -6.78371 -10.8041
93 5 2 17.9123 -8.52485 -12.3809
97 6 3 16.5409 18.1861 -9.83749
95 6 1 15.9175 16.5305 -8.44028
108 6 2 15.0358 16.3314 -9.11371
109 6 2 15.5456 16.4076 -7.42774
110 6 2 16.6751 15.7787 -8.62614
96 6 1 16.4515 17.9339 -8.5916
98 6 3 17.4466 18.3211 -7.67298
99 6 1 18.35 19.3748 -7.49421
100 6 1 17.8738 20.5912 -8.06655
101 6 1 18.8038 21.5867 -8.17975
102 6 1 19.7725 21.7017 -7.25431
103 6 1 20.295 20.4888 -6.82014
104 6 1 19.4025 19.4316 -6.56039
105 6 1 19.953 18.1479 -5.93323
106 6 3 19.1878 17.2458 -5.43773
107 6 3 21.2158 18.283 -5.30565
111 6 2 17.2764 20.4996 -8.98766
114 6 2 20.9984 20.7181 -6.04319
115 6 2 21.8148 17.4185 -5.10079
112 6 2 18.4041 22.5817 -8.60671
113 6 2 20.4697 22.542 -7.36555
32 3 1 15.8506 -6.0658 6.49983
45 3 2 14.9525 -6.00283 5.81832
46 3 2 15.5088 -5.76814 7.48781
47 3 2 16.2903 -7.13122 6.47535
33 3 1 16.8975 -5.17008 5.90376
34 3 3 17.0654 -5.34007 4.67607
35 3 3 18.0143 -4.94903 6.70896
36 3 1 19.001 -3.93326 6.49233
41 3 1 20.3384 -4.21847 6.95172
42 3 1 20.8142 -5.61986 6.77204
43 3 3 20.7965 -6.04441 5.60297
44 3 3 21.7825 -6.07204 7.6474
40 3 1 21.3106 -3.29118 6.63263
51 3 2 22.3493 -3.45065 7.00984
52 3 2 22.7407 -5.82541 7.43522
37 3 1 18.5246 -2.53631 6.57455
38 3 1 19.5347 -1.64461 6.20458
39 3 1 20.8788 -1.90984 6.6739
48 3 2 17.5282 -2.30768 6.28394
49 3 2 19.2013 -0.597923 6.09165
50 3 2 21.6012 -1.15557 6.39366
55 4 3 5.33717 17.6987 8.53379
11 2 1 -12.0122 -23.4986 12.1972
12 2 1 -10.9311 -22.8282 11.4231
13 2 3 -10.9039 -23.1956 10.2152
14 2 3 -9.73273 -22.7056 12.1426
24 2 2 -12.9909 -23.419 11.596
25 2 2 -12.124 -23.0751 13.185
26 2 2 -11.77 -24.5562 12.2609
21 2 1 -7.30772 -23.1465 13.3687
22 2 3 -7.12582 -24.0745 12.6026
23 2 3 -6.92887 -23.2201 14.7098
31 2 2 -5.94418 -23.2561 14.9924
27 2 2 -10.0963 -20.3536 10.6454
20 2 1 -7.65725 -21.8221 12.7323
16 2 1 -9.23516 -20.4558 11.3059
28 2 2 -8.47114 -18.5707 10.8213
15 2 1 -8.75831 -21.7545 11.7937
17 2 1 -8.21195 -19.5673 11.0199
18 2 1 -7.05367 -19.5583 11.8885
19 2 1 -6.71977 -20.8282 12.3985
29 2 2 -6.28749 -18.8147 11.6434
30 2 2 -5.77742 -20.7657 13.0233
1 1 1 18.7276 7.18421 14.6312
2 1 1 19.5332 8.05323 15.2504
3 1 1 20.8177 8.39542 14.5656
7 1 2 17.7966 6.85018 15.1512
8 1 2 19.2254 8.57106 16.1151
5 1 4 20.7887 8.89336 13.2155
10 1 2 20.2458 8.37494 12.4453
4 1 3 21.7812 8.71395 15.2426
6 1 2 18.9303 6.77077 13.7021
9 1 2 21.0536 9.92743 13.0437
66 4 2 3.13253 17.949 9.92262
69 4 2 5.91817 20.9251 9.31092
59 4 1 7.90518 21.8232 9.47149
68 4 2 4.24896 16.8186 10.8511
54 4 1 5.18569 18.2244 9.65526
53 4 1 4.0584 17.8237 10.5487
56 4 3 6.36216 18.5673 10.3049
57 4 1 7.41459 19.4968 9.91077
58 4 1 6.96658 20.8027 9.71479
60 4 1 9.18959 21.6873 10.1179
62 4 1 8.68324 19.3432 10.6967
67 4 2 4.04851 18.3919 11.4722
63 4 1 9.22502 17.9288 10.7444
61 4 1 9.67247 20.3364 10.361
64 4 3 9.50791 17.3012 9.67114
65 4 3 10.1508 17.5217 11.6992
72 4 2 10.6638 20.2015 10.809
73 4 2 10.0038 17.8384 12.6937
70 4 2 7.49726 22.799 9.49978
71 4 2 9.96035 22.4303 9.88885
ITEM: TIMESTEP
3340
ITEM: NUMBER OF ATOMS
115
ITEM: BOX BOUNDS pp pp pp
-2.8628399999999999e+01 2.8628399999999999e+01
-2.8628399999999999e+01 2.8628399999999999e+01
-2.8628399999999999e+01 2.8628399999999999e+01
ITEM: ATOMS id mol type x y z
74 5 1 12.6983 -12.4327 -12.6137
75 5 1 13.6623 -11.3137 -13.0567
76 5 3 13.8978 -11.0313 -14.3183
77 5 3 14.796 -11.1853 -12.2185
78 5 1 15.5376 -10.0387 -12.0192
87 5 2 11.771 -12.4524 -13.3272
88 5 2 12.3654 -12.1838 -11.5547
89 5 2 13.1952 -13.4242 -12.6916
83 5 1 16.8974 -10.0548 -11.4114
84 5 1 17.7954 -11.2397 -11.6613
85 5 3 17.284 -12.4058 -11.6936
86 5 3 19.0153 -11.1119 -11.0822
94 5 2 19.1703 -11.2879 -10.117
79 5 1 14.842 -8.75643 -11.7816
80 5 1 15.6001 -7.53722 -11.5197
90 5 2 13.9205 -8.61475 -12.309
91 5 2 15.0698 -6.62509 -11.2497
81 5 1 16.7931 -7.7062 -10.9333
82 5 1 17.4927 -8.77809 -11.5062
92 5 2 17.3942 -6.82073 -10.7654
93 5 2 17.9521 -8.56751 -12.4899
97 6 3 16.5799 18.2225 -9.87486
95 6 1 15.8781 16.5118 -8.39667
108 6 2 14.9403 16.3643 -8.95736
109 6 2 15.6892 16.3227 -7.23365
110 6 2 16.587 15.7208 -8.72548
96 6 1 16.5415 17.8147 -8.6658
98 6 3 17.4201 18.247 -7.60619
99 6 1 18.357 19.2917 -7.57723
100 6 1 17.9027 20.5984 -8.08856
101 6 1 18.772 21.6864 -8.10867
102 6 1 19.8016 21.6958 -7.15262
103 6 1 20.2873 20.4811 -6.68596
104 6 1 19.2685 19.475 -6.43977
105 6 1 19.953 18.1814 -5.99548
106 6 3 19.1645 17.2357 -5.57622
107 6 3 21.1615 18.25 -5.30071
111 6 2 17.1797 20.602 -8.93374
114 6 2 21.2323 20.5442 -6.22992
115 6 2 21.6897 17.4468 -5.14334
112 6 2 18.399 22.5842 -8.50677
113 6 2 20.5657 22.5011 -7.34643
32 3 1 15.8398 -6.09241 6.46285
45 3 2 14.8901 -6.08394 5.84057
46 3 2 15.4748 -5.56349 7.41003
47 3 2 16.1851 -7.08313 6.63258
33 3 1 16.9471 -5.22472 5.93467
34 3 3 17.1519 -5.3186 4.67686
35 3 3 18.0586 -4.99106 6.79522
36 3 1 18.9958 -4.04042 6.59933
41 3 1 20.414 -4.27379 6.89399
42 3 1 20.8276 -5.72847 6.7525
43 3 3 20.8138 -6.17868 5.595
44 3 3 21.8289 -6.25945 7.63056
40 3 1 21.2998 -3.22382 6.54115
51 3 2 22.3278 -3.24323 6.81068
52 3 2 22.8138 -5.96592 7.63386
37 3 1 18.56 -2.65172 6.5857
38 3 1 19.5618 -1.69936 6.20911
39 3 1 20.8576 -1.91461 6.59932
48 3 2 17.5834 -2.4886 6.20667
49 3 2 19.2773 -0.726178 6.19615
50 3 2 21.5551 -1.12313 6.3639
55 4 3 5.25605 17.6469 8.56323
11 2 1 -12.0034 -23.5401 12.2365
12 2 1 -10.9324 -22.8645 11.4227
13 2 3 -10.7798 -23.2765 10.2282
14 2 3 -9.80236 -22.6126 12.1414
24 2 2 -12.8601 -23.7198 11.6279
25 2 2 -12.2951 -22.9328 13.0861
26 2 2 -11.6623 -24.6079 12.6028
21 2 1 -7.30378 -23.0951 13.3471
22 2 3 -7.15715 -24.1172 12.6519
23 2 3 -6.89363 -23.1555 14.7274
31 2 2 -5.87793 -23.3314 14.8732
27 2 2 -10.001 -20.3753 10.6502
20 2 1 -7.68221 -21.7683 12.7416
16 2 1 -9.16142 -20.4575 11.3133
28 2 2 -8.47912 -18.469 10.8381
15 2 1 -8.79438 -21.7477 11.7433
17 2 1 -8.1877 -19.5006 11.1269
18 2 1 -7.05347 -19.5739 11.9884
19 2 1 -6.63113 -20.8837 12.3594
29 2 2 -6.22533 -18.8177 11.7699
30 2 2 -5.81738 -20.7465 13.0693
1 1 1 18.7154 7.11794 14.5999
2 1 1 19.4813 8.01311 15.2145
3 1 1 20.7845 8.34879 14.6251
7 1 2 17.696 6.91437 15.0232
8 1 2 18.9754 8.73649 15.9038
5 1 4 20.7281 8.88464 13.2512
10 1 2 20.2938 8.20819 12.5504
4 1 3 21.7252 8.78841 15.3409
6 1 2 19.1132 6.4473 13.8041
9 1 2 20.7358 9.93916 13.1568
66 4 2 3.08899 17.6429 9.9313
69 4 2 6.05492 21.1431 9.35555
59 4 1 7.99427 21.823 9.49845
68 4 2 4.37153 16.9521 11.1083
54 4 1 5.17774 18.3646 9.62066
53 4 1 4.01639 17.8691 10.4856
56 4 3 6.38308 18.6015 10.328
57 4 1 7.3804 19.5622 10.0164
58 4 1 6.99897 20.9515 9.83234
60 4 1 9.20311 21.7139 10.0665
62 4 1 8.70379 19.3662 10.6159
67 4 2 3.82895 18.6984 11.2188
63 4 1 9.31013 17.9507 10.714
61 4 1 9.5837 20.4278 10.4036
64 4 3 9.43353 17.372 9.60197
65 4 3 10.3112 17.6381 11.6554
72 4 2 10.4019 20.5071 11.11
73 4 2 10.3463 17.8533 12.6052
70 4 2 7.66319 22.8395 9.30707
71 4 2 10.0108 22.3666 9.73124
ITEM: TIMESTEP
3360
ITEM: NUMBER OF ATOMS
115
ITEM: BOX BOUNDS pp pp pp
-2.8628399999999999e+01 2.8628399999999999e+01
-2.8628399999999999e+01 2.8628399999999999e+01
-2.8628399999999999e+01 2.8628399999999999e+01
ITEM: ATOMS id mol type x y z
74 5 1 12.7198 -12.3364 -12.7296
75 5 1 13.7058 -11.2613 -13.0238
76 5 3 13.9336 -11.1037 -14.2617
77 5 3 14.769 -11.127 -12.1627
78 5 1 15.4908 -9.91826 -12.022
87 5 2 11.9078 -12.3892 -13.4626
88 5 2 12.3892 -12.1605 -11.7373
89 5 2 13.2283 -13.3031 -12.7296
83 5 1 16.8267 -10.0482 -11.3972
84 5 1 17.7056 -11.2561 -11.6385
85 5 3 17.3162 -12.439 -11.7512
86 5 3 18.9996 -11.0983 -11.0447
94 5 2 19.14 -11.1551 -10.0641
79 5 1 14.8207 -8.71414 -11.7702
80 5 1 15.5939 -7.58016 -11.5821
90 5 2 13.855 -8.532 -12.2957
91 5 2 14.9654 -6.79022 -11.2673
81 5 1 16.8678 -7.70877 -10.9584
82 5 1 17.5811 -8.82274 -11.566
92 5 2 17.4211 -6.85023 -10.7092
93 5 2 18.1468 -8.64023 -12.49
97 6 3 16.6772 18.1634 -9.83442
95 6 1 15.8753 16.441 -8.38215
108 6 2 15.009 16.2925 -9.08871
109 6 2 15.6228 16.3569 -7.26372
110 6 2 16.6197 15.6625 -8.51299
96 6 1 16.4803 17.7964 -8.61924
98 6 3 17.4618 18.2454 -7.65522
99 6 1 18.3319 19.429 -7.62167
100 6 1 17.9215 20.6726 -8.07631
101 6 1 18.7658 21.7497 -8.02299
102 6 1 19.7936 21.7298 -7.0895
103 6 1 20.2949 20.4666 -6.68045
104 6 1 19.3496 19.3829 -6.56621
105 6 1 19.957 18.1698 -5.99641
106 6 3 19.1362 17.2513 -5.70201
107 6 3 21.1105 18.1836 -5.18316
111 6 2 17.2924 20.6024 -8.96211
114 6 2 20.8999 20.7022 -5.79927
115 6 2 21.8225 17.517 -5.3624
112 6 2 18.3517 22.6465 -8.32822
113 6 2 20.4536 22.5757 -7.08144
32 3 1 15.8475 -6.07292 6.36491
45 3 2 14.9207 -5.99672 5.65839
46 3 2 15.5493 -5.63788 7.34739
47 3 2 16.2148 -7.09931 6.43385
33 3 1 16.9317 -5.21526 5.91823
34 3 3 17.2071 -5.23946 4.65978
35 3 3 18.0278 -5.09696 6.79196
36 3 1 18.9978 -4.06286 6.58568
41 3 1 20.3999 -4.2759 6.91498
42 3 1 20.8846 -5.70088 6.71469
43 3 3 20.8981 -6.23182 5.59064
44 3 3 21.8218 -6.25652 7.59798
40 3 1 21.2732 -3.29738 6.50587
51 3 2 22.3678 -3.45597 6.59759
52 3 2 22.809 -6.12073 7.5708
37 3 1 18.6183 -2.6748 6.60164
38 3 1 19.5002 -1.70394 6.18713
39 3 1 20.8302 -1.88502 6.575
48 3 2 17.5886 -2.47114 6.37308
49 3 2 19.1692 -0.716322 6.32337
50 3 2 21.4983 -1.11844 6.25057
55 4 3 5.37865 17.6722 8.51563
11 2 1 -11.9593 -23.5822 12.2476
12 2 1 -10.9597 -22.9211 11.4229
13 2 3 -10.814 -23.223 10.2133
14 2 3 -9.8244 -22.4889 12.1313
24 2 2 -12.7749 -23.9079 11.6155
25 2 2 -12.3293 -22.8708 13.0834
26 2 2 -11.482 -24.5434 12.7508
21 2 1 -7.38894 -23.1229 13.4124
22 2 3 -7.12953 -24.1087 12.7273
23 2 3 -6.81172 -23.1595 14.7225
31 2 2 -5.83214 -23.1738 14.8831
27 2 2 -9.91488 -20.4132 10.4845
20 2 1 -7.66492 -21.7665 12.7294
16 2 1 -9.16184 -20.4903 11.2836
28 2 2 -8.57671 -18.5181 11.0231
15 2 1 -8.76642 -21.7742 11.7611
17 2 1 -8.22046 -19.5231 11.2041
18 2 1 -7.08233 -19.5621 12.0757
19 2 1 -6.64252 -20.8929 12.427
29 2 2 -6.40591 -18.7707 11.9304
30 2 2 -5.74436 -20.9002 13.0076
1 1 1 18.6787 7.00479 14.6136
2 1 1 19.4386 8.02155 15.0823
3 1 1 20.7903 8.34598 14.6037
7 1 2 17.7424 6.80833 15.0663
8 1 2 18.9991 8.69424 15.7996
5 1 4 20.7356 8.91796 13.3038
10 1 2 20.4414 8.29142 12.6119
4 1 3 21.6784 8.74086 15.3989
6 1 2 19.0076 6.36685 13.7489
9 1 2 20.4851 9.93121 13.2005
66 4 2 3.15847 17.6953 9.76018
69 4 2 6.02734 21.0365 9.52657
59 4 1 7.9828 21.8275 9.44534
68 4 2 4.23515 17.0142 11.0728
54 4 1 5.18946 18.3034 9.62749
53 4 1 3.99539 17.8623 10.4162
56 4 3 6.30354 18.7165 10.4123
57 4 1 7.39305 19.5409 10.0226
58 4 1 7.001 20.8865 9.8837
60 4 1 9.30225 21.6988 9.99699
62 4 1 8.71127 19.4239 10.692
67 4 2 3.75473 18.657 11.135
63 4 1 9.32614 18.0408 10.6955
61 4 1 9.70002 20.3916 10.43
64 4 3 9.31679 17.427 9.58393
65 4 3 10.3897 17.755 11.5768
72 4 2 10.6727 20.3589 10.9023
73 4 2 10.3876 18.0067 12.5366
70 4 2 7.71279 22.7959 9.12468
71 4 2 9.9447 22.3315 9.56432
ITEM: TIMESTEP
3380
ITEM: NUMBER OF ATOMS
115
ITEM: BOX BOUNDS pp pp pp
-2.8628399999999999e+01 2.8628399999999999e+01
-2.8628399999999999e+01 2.8628399999999999e+01
-2.8628399999999999e+01 2.8628399999999999e+01
ITEM: ATOMS id mol type x y z
74 5 1 12.7235 -12.3082 -12.8427
75 5 1 13.6547 -11.2034 -13.0484
76 5 3 13.8098 -11.0662 -14.2802
77 5 3 14.7068 -11.0159 -12.1422
78 5 1 15.5399 -9.86518 -12.076
87 5 2 11.9142 -12.1804 -13.5477
88 5 2 12.2012 -12.3746 -11.8493
89 5 2 13.257 -13.3144 -12.9949
83 5 1 16.8469 -10.0702 -11.5217
84 5 1 17.7722 -11.2461 -11.6495
85 5 3 17.3696 -12.398 -11.8743
86 5 3 18.9888 -11.1422 -10.9441
94 5 2 18.9755 -11.3543 -9.97656
79 5 1 14.8049 -8.6894 -11.6864
80 5 1 15.5315 -7.54139 -11.4625
90 5 2 13.816 -8.50137 -12.0681
91 5 2 14.9462 -6.58101 -11.197
81 5 1 16.8437 -7.68242 -11.0471
82 5 1 17.5499 -8.84715 -11.3783
92 5 2 17.4779 -6.82739 -11.0045
93 5 2 18.287 -8.72136 -12.1767
97 6 3 16.7115 18.1481 -9.8337
95 6 1 15.9377 16.4806 -8.43027
108 6 2 15.0584 16.3929 -9.15758
109 6 2 15.5274 16.3557 -7.4293
110 6 2 16.6378 15.7191 -8.63391
96 6 1 16.4796 17.8717 -8.60921
98 6 3 17.5185 18.2729 -7.69596
99 6 1 18.3783 19.4142 -7.68688
100 6 1 17.8475 20.685 -8.06737
101 6 1 18.7946 21.7708 -8.0152
102 6 1 19.8118 21.739 -7.01573
103 6 1 20.296 20.522 -6.63329
104 6 1 19.3973 19.4401 -6.58924
105 6 1 19.9928 18.1475 -6.02093
106 6 3 19.1068 17.2858 -5.72137
107 6 3 21.1059 18.1457 -5.18936
111 6 2 17.1566 20.7114 -8.90954
114 6 2 20.9478 20.6567 -5.74921
115 6 2 21.7761 17.3912 -4.98702
112 6 2 18.4505 22.7702 -8.26897
113 6 2 20.5209 22.5232 -6.91145
32 3 1 15.9239 -6.17644 6.41014
45 3 2 15.0475 -6.13258 5.71932
46 3 2 15.4831 -5.9162 7.47304
47 3 2 16.3073 -7.22512 6.46031
33 3 1 17.014 -5.23676 5.9565
34 3 3 17.2486 -5.26818 4.65913
35 3 3 18.147 -5.0713 6.77214
36 3 1 19.0025 -3.97364 6.54973
41 3 1 20.3408 -4.29915 6.89295
42 3 1 20.8452 -5.72839 6.69892
43 3 3 20.9494 -6.18803 5.52551
44 3 3 21.8661 -6.15095 7.62325
40 3 1 21.2202 -3.3512 6.52797
51 3 2 22.3322 -3.41938 6.61096
52 3 2 22.8298 -5.94497 7.44757
37 3 1 18.562 -2.64241 6.55659
38 3 1 19.4872 -1.68196 6.23357
39 3 1 20.841 -2.05999 6.50283
48 3 2 17.5477 -2.41782 6.20546
49 3 2 19.1857 -0.613592 6.35497
50 3 2 21.5536 -1.27383 6.47685
55 4 3 5.46084 17.6694 8.54073
11 2 1 -12.0117 -23.6818 12.2461
12 2 1 -10.9947 -22.904 11.3971
13 2 3 -10.8525 -23.2687 10.1965
14 2 3 -9.86127 -22.5429 12.1527
24 2 2 -12.9611 -23.878 11.7128
25 2 2 -12.1273 -23.062 13.2277
26 2 2 -11.5671 -24.6375 12.5288
21 2 1 -7.44496 -23.1536 13.4128
22 2 3 -7.11251 -24.1267 12.7111
23 2 3 -6.78211 -23.0809 14.625
31 2 2 -5.76651 -23.0144 14.6708
27 2 2 -9.96253 -20.296 10.5698
20 2 1 -7.76975 -21.8195 12.6899
16 2 1 -9.20239 -20.3891 11.2924
28 2 2 -8.45531 -18.322 11.1201
15 2 1 -8.82123 -21.7183 11.7502
17 2 1 -8.20693 -19.4356 11.2362
18 2 1 -7.13868 -19.6156 12.1101
19 2 1 -6.70532 -20.9026 12.4672
29 2 2 -6.36688 -18.8717 12.072
30 2 2 -5.95342 -20.8765 13.1419
1 1 1 18.6834 7.00939 14.6359
2 1 1 19.3884 8.06009 15.0992
3 1 1 20.7281 8.31869 14.5527
7 1 2 17.7411 6.89301 14.8286
8 1 2 19.0109 8.80626 15.7609
5 1 4 20.7223 8.93764 13.2647
10 1 2 20.2299 8.40812 12.5
4 1 3 21.6569 8.66062 15.3041
6 1 2 19.0964 6.36883 13.8848
9 1 2 20.7569 9.96262 13.1484
66 4 2 3.03988 17.9788 9.87187
69 4 2 5.96847 20.9854 9.32191
59 4 1 7.95108 21.7611 9.35009
68 4 2 4.13734 16.7711 10.7276
54 4 1 5.21689 18.2694 9.63278
53 4 1 4.01054 17.8447 10.4663
56 4 3 6.32798 18.6774 10.4121
57 4 1 7.3999 19.4853 10.0275
58 4 1 6.95191 20.8328 9.77323
60 4 1 9.23499 21.5969 9.93706
62 4 1 8.68816 19.4195 10.7208
67 4 2 3.90419 18.4004 11.3968
63 4 1 9.25927 18.0246 10.6846
61 4 1 9.68013 20.3585 10.3341
64 4 3 9.23538 17.4332 9.60193
65 4 3 10.3936 17.8029 11.4962
72 4 2 10.7125 20.3421 10.783
73 4 2 10.4014 18.067 12.4579
70 4 2 7.63903 22.8123 9.24443
71 4 2 9.96698 22.3213 9.51939
ITEM: TIMESTEP
3400
ITEM: NUMBER OF ATOMS
115
ITEM: BOX BOUNDS pp pp pp
-2.8628399999999999e+01 2.8628399999999999e+01
-2.8628399999999999e+01 2.8628399999999999e+01
-2.8628399999999999e+01 2.8628399999999999e+01
ITEM: ATOMS id mol type x y z
74 5 1 12.6962 -12.3607 -12.7812
75 5 1 13.5793 -11.1796 -13.0686
76 5 3 13.7791 -10.9903 -14.334
77 5 3 14.6884 -11.0622 -12.1766
78 5 1 15.5233 -9.92623 -12.0552
87 5 2 11.599 -12.1224 -13.1006
88 5 2 12.6528 -12.6075 -11.6974
89 5 2 13.02 -13.2893 -13.2892
83 5 1 16.8114 -10.078 -11.4289
84 5 1 17.8282 -11.2038 -11.7211
85 5 3 17.4547 -12.3529 -12.0698
86 5 3 18.9501 -11.2352 -10.8763
94 5 2 18.8829 -11.5974 -9.89331
79 5 1 14.8128 -8.76924 -11.6452
80 5 1 15.5863 -7.54961 -11.3966
90 5 2 13.8111 -8.58848 -11.9676
91 5 2 15.0886 -6.70237 -10.9985
81 5 1 16.8758 -7.69655 -10.9976
82 5 1 17.5521 -8.81766 -11.3341
92 5 2 17.5523 -6.81617 -10.9225
93 5 2 18.3692 -8.64396 -12.0597
97 6 3 16.6999 18.1783 -9.84756
95 6 1 15.9988 16.5233 -8.48607
108 6 2 15.0738 16.534 -9.06699
109 6 2 15.7118 16.257 -7.44333
110 6 2 16.7438 15.8116 -8.9051
96 6 1 16.5176 17.9354 -8.59708
98 6 3 17.535 18.3428 -7.69899
99 6 1 18.4176 19.3992 -7.65656
100 6 1 17.9571 20.6961 -8.03164
101 6 1 18.7825 21.7595 -7.981
102 6 1 19.7171 21.7847 -6.98008
103 6 1 20.3295 20.5863 -6.67213
104 6 1 19.4085 19.4053 -6.58008
105 6 1 19.9269 18.1142 -6.07845
106 6 3 19.1125 17.2241 -5.67291
107 6 3 21.0268 18.0582 -5.28596
111 6 2 17.2227 20.7707 -8.83307
114 6 2 21.0426 20.6262 -5.8966
115 6 2 21.4202 17.1558 -4.91302
112 6 2 18.3377 22.7552 -8.20172
113 6 2 20.3545 22.6058 -7.08253
32 3 1 16.0659 -6.2329 6.37975
45 3 2 15.2328 -6.41539 5.71466
46 3 2 15.6689 -5.96883 7.32687
47 3 2 16.5393 -7.22527 6.50866
33 3 1 17.0085 -5.26314 5.91158
34 3 3 17.2085 -5.24605 4.65731
35 3 3 18.1071 -4.99841 6.70899
36 3 1 18.9804 -4.01626 6.43539
41 3 1 20.3521 -4.31808 6.91468
42 3 1 20.876 -5.71936 6.69326
43 3 3 20.9648 -6.17151 5.53303
44 3 3 21.8454 -6.06034 7.55553
40 3 1 21.2508 -3.28524 6.5457
51 3 2 22.2632 -3.30869 6.92728
52 3 2 22.6724 -5.53145 7.50603
37 3 1 18.4758 -2.67279 6.45631
38 3 1 19.4388 -1.62207 6.27481
39 3 1 20.8296 -1.95124 6.5925
48 3 2 17.469 -2.4859 6.05513
49 3 2 19.1381 -0.559966 6.34812
50 3 2 21.5577 -1.3428 5.99987
55 4 3 5.43437 17.6067 8.64616
11 2 1 -12.055 -23.7046 12.2018
12 2 1 -10.9935 -22.9046 11.463
13 2 3 -10.8434 -23.2318 10.2484
14 2 3 -9.90401 -22.6101 12.203
24 2 2 -12.9077 -23.6941 11.5793
25 2 2 -12.2512 -23.2018 13.1066
26 2 2 -11.7268 -24.7247 12.3968
21 2 1 -7.39845 -23.1198 13.3561
22 2 3 -7.15567 -24.1572 12.6852
23 2 3 -6.83237 -23.0556 14.6112
31 2 2 -5.79751 -23.0312 14.6215
27 2 2 -10.0742 -20.2659 10.6876
20 2 1 -7.83894 -21.7954 12.7869
16 2 1 -9.2304 -20.3974 11.3654
28 2 2 -8.53783 -18.4536 11.0115
15 2 1 -8.88562 -21.7041 11.8225
17 2 1 -8.21653 -19.478 11.1539
18 2 1 -7.14464 -19.6017 12.1499
19 2 1 -6.76256 -20.8781 12.5236
29 2 2 -6.28078 -18.91 12.0107
30 2 2 -5.85443 -20.9957 13.1176
1 1 1 18.67 7.11223 14.63
2 1 1 19.4847 8.03423 15.1221
3 1 1 20.7618 8.34242 14.5016
7 1 2 17.6344 7.0892 15.0947
8 1 2 19.1904 8.69036 15.8682
5 1 4 20.7435 9.00661 13.2464
10 1 2 20.1152 8.59872 12.4355
4 1 3 21.6749 8.6758 15.2551
6 1 2 18.9427 6.4239 13.8219
9 1 2 20.9107 9.98973 13.1724
66 4 2 3.12034 17.8355 9.87392
69 4 2 6.06093 21.0006 9.23441
59 4 1 7.94551 21.7662 9.33687
68 4 2 4.1855 16.8198 11.0088
54 4 1 5.22934 18.2342 9.68185
53 4 1 4.07129 17.8302 10.5028
56 4 3 6.42852 18.483 10.4086
57 4 1 7.39018 19.4807 10.103
58 4 1 6.94473 20.8516 9.75667
60 4 1 9.18209 21.6932 9.95548
62 4 1 8.71346 19.3943 10.6912
67 4 2 3.88679 18.6062 11.2985
63 4 1 9.23486 17.9657 10.7032
61 4 1 9.64665 20.4005 10.2557
64 4 3 9.21709 17.3933 9.5977
65 4 3 10.3918 17.768 11.4147
72 4 2 10.5998 20.3642 10.8016
73 4 2 10.6167 18.287 12.2307
70 4 2 7.54845 22.6211 8.90998
71 4 2 9.86188 22.5163 9.68746
ITEM: TIMESTEP
3420
ITEM: NUMBER OF ATOMS
115
ITEM: BOX BOUNDS pp pp pp
-2.8628399999999999e+01 2.8628399999999999e+01
-2.8628399999999999e+01 2.8628399999999999e+01
-2.8628399999999999e+01 2.8628399999999999e+01
ITEM: ATOMS id mol type x y z
74 5 1 12.6861 -12.4018 -12.6678
75 5 1 13.6386 -11.2656 -13.0859
76 5 3 13.7973 -10.9229 -14.3071
77 5 3 14.7403 -11.0835 -12.1918
78 5 1 15.5755 -9.94137 -11.9813
87 5 2 11.6592 -12.209 -12.8314
88 5 2 12.7954 -12.6209 -11.638
89 5 2 12.966 -13.3241 -13.1809
83 5 1 16.8375 -10.1017 -11.3122
84 5 1 17.8241 -11.2918 -11.5664
85 5 3 17.4503 -12.3094 -12.2483
86 5 3 19.0013 -11.2702 -10.9005
94 5 2 19.0124 -11.419 -9.90722
79 5 1 14.829 -8.8657 -11.543
80 5 1 15.4726 -7.66344 -11.3055
90 5 2 13.7898 -8.8008 -11.8278
91 5 2 14.9878 -6.93608 -10.8638
81 5 1 16.7855 -7.72802 -10.9324
82 5 1 17.6014 -8.88767 -11.3567
92 5 2 17.3273 -6.83087 -10.7346
93 5 2 18.1495 -8.74694 -12.2872
97 6 3 16.7114 18.2097 -9.89655
95 6 1 16.0982 16.5172 -8.54883
108 6 2 15.1457 16.4242 -9.08848
109 6 2 15.8803 16.3549 -7.49881
110 6 2 16.8805 15.7741 -8.90151
96 6 1 16.6707 17.871 -8.68778
98 6 3 17.5302 18.2601 -7.74247
99 6 1 18.3845 19.346 -7.69106
100 6 1 17.8971 20.6314 -8.05408
101 6 1 18.7106 21.7987 -8.01456
102 6 1 19.7496 21.7562 -7.02704
103 6 1 20.2988 20.475 -6.65482
104 6 1 19.421 19.4039 -6.62636
105 6 1 19.8953 18.0588 -6.15158
106 6 3 19.0464 17.192 -5.72862
107 6 3 21.0088 18.1124 -5.28196
111 6 2 17.1751 20.6005 -8.9643
114 6 2 21.0252 20.458 -5.87643
115 6 2 21.6436 17.3031 -5.24966
112 6 2 18.2199 22.7658 -8.17553
113 6 2 20.3689 22.6576 -6.99998
32 3 1 16.0334 -6.30778 6.37986
45 3 2 15.1173 -6.41034 5.8175
46 3 2 15.7424 -6.09282 7.40436
47 3 2 16.5264 -7.27551 6.30436
33 3 1 16.9067 -5.20195 5.85803
34 3 3 17.2499 -5.28058 4.63446
35 3 3 17.999 -4.98833 6.6965
36 3 1 18.9773 -4.00331 6.39526
41 3 1 20.3059 -4.21881 6.85819
42 3 1 20.8604 -5.61851 6.64393
43 3 3 20.945 -6.15077 5.50594
44 3 3 21.8702 -6.01827 7.56391
40 3 1 21.2863 -3.20594 6.56521
51 3 2 22.3132 -3.36008 6.84485
52 3 2 22.783 -5.5787 7.60623
37 3 1 18.5119 -2.67777 6.48428
38 3 1 19.4333 -1.71303 6.29045
39 3 1 20.7745 -1.85119 6.42022
48 3 2 17.4982 -2.47311 6.15624
49 3 2 19.0658 -0.741335 6.49504
50 3 2 21.4015 -1.00925 6.11954
55 4 3 5.42974 17.5434 8.67061
11 2 1 -12.1359 -23.6411 12.1534
12 2 1 -11.0638 -22.8793 11.4471
13 2 3 -10.8336 -23.2528 10.2353
14 2 3 -9.92305 -22.6116 12.1803
24 2 2 -13.0223 -23.8158 11.5033
25 2 2 -12.4378 -23.1176 13.1008
26 2 2 -11.7026 -24.6785 12.5305
21 2 1 -7.37207 -23.053 13.3931
22 2 3 -7.20831 -24.0074 12.6371
23 2 3 -6.84605 -22.9932 14.6822
31 2 2 -5.88079 -22.9437 14.8569
27 2 2 -9.88236 -20.4264 10.5252
20 2 1 -7.7782 -21.785 12.8175
16 2 1 -9.23533 -20.4216 11.3929
28 2 2 -8.39663 -18.5342 10.8631
15 2 1 -8.86058 -21.7215 11.8933
17 2 1 -8.21282 -19.5149 11.2289
18 2 1 -7.18257 -19.6086 12.1382
19 2 1 -6.78577 -20.8363 12.5988
29 2 2 -6.34543 -18.8268 12.0185
30 2 2 -6.052 -20.8039 13.3954
1 1 1 18.6868 7.16586 14.6104
2 1 1 19.484 8.02509 15.1464
3 1 1 20.801 8.39725 14.4774
7 1 2 17.787 7.02301 15.1648
8 1 2 19.1431 8.61628 16.0188
5 1 4 20.7609 9.04838 13.1976
10 1 2 20.362 8.60259 12.3968
4 1 3 21.7423 8.68713 15.2519
6 1 2 18.9238 6.601 13.7525
9 1 2 20.8158 10.1073 13.1125
66 4 2 3.2289 17.6693 9.80034
69 4 2 5.913 20.8215 9.24589
59 4 1 7.88423 21.6451 9.31122
68 4 2 4.21639 16.8963 11.0871
54 4 1 5.23663 18.1432 9.75152
53 4 1 4.05522 17.8124 10.5139
56 4 3 6.41101 18.4816 10.4857
57 4 1 7.32702 19.4694 10.0799
58 4 1 6.85875 20.7467 9.79919
60 4 1 9.06994 21.6619 9.94539
62 4 1 8.6685 19.4126 10.6399
67 4 2 3.78321 18.6395 11.2579
63 4 1 9.31758 18.0273 10.6992
61 4 1 9.59722 20.4107 10.268
64 4 3 9.26759 17.3368 9.62206
65 4 3 10.4186 17.7566 11.4278
72 4 2 10.6034 20.3676 10.6701
73 4 2 10.5021 17.7913 12.41
70 4 2 7.48341 22.592 9.04991
71 4 2 9.72028 22.354 9.56325
ITEM: TIMESTEP
3440
ITEM: NUMBER OF ATOMS
115
ITEM: BOX BOUNDS pp pp pp
-2.8628399999999999e+01 2.8628399999999999e+01
-2.8628399999999999e+01 2.8628399999999999e+01
-2.8628399999999999e+01 2.8628399999999999e+01
ITEM: ATOMS id mol type x y z
74 5 1 12.7625 -12.3208 -12.7828
75 5 1 13.743 -11.273 -13.1256
76 5 3 13.7151 -10.9762 -14.3129
77 5 3 14.8544 -11.1539 -12.2454
78 5 1 15.5678 -9.99242 -11.887
87 5 2 11.7691 -12.1597 -13.2204
88 5 2 12.6723 -12.4507 -11.6401
89 5 2 13.0835 -13.2951 -13.1612
83 5 1 16.8454 -10.1343 -11.2445
84 5 1 17.7755 -11.3252 -11.4785
85 5 3 17.4325 -12.3581 -12.1985
86 5 3 19.0362 -11.319 -10.9709
94 5 2 19.2493 -11.6361 -10.0616
79 5 1 14.7596 -8.89285 -11.4772
80 5 1 15.4514 -7.67113 -11.3669
90 5 2 13.7622 -8.82505 -11.8968
91 5 2 14.8187 -6.80278 -11.0882
81 5 1 16.7832 -7.7286 -10.8614
82 5 1 17.4889 -8.87857 -11.3094
92 5 2 17.3392 -6.81343 -10.769
93 5 2 18.2194 -8.76069 -12.1345
97 6 3 16.7221 18.3377 -9.96905
95 6 1 16.0708 16.517 -8.53346
108 6 2 15.1824 16.2083 -9.17731
109 6 2 15.7206 16.5237 -7.50981
110 6 2 16.9259 15.7472 -8.67938
96 6 1 16.6442 17.85 -8.76952
98 6 3 17.5372 18.2216 -7.74093
99 6 1 18.3578 19.4121 -7.73299
100 6 1 17.8508 20.6676 -8.1167
101 6 1 18.7108 21.7305 -8.01193
102 6 1 19.7437 21.7207 -7.05975
103 6 1 20.2178 20.4976 -6.68618
104 6 1 19.3429 19.3911 -6.63128
105 6 1 19.8305 18.0725 -6.01977
106 6 3 18.9878 17.1588 -5.70943
107 6 3 20.9981 18.0059 -5.26865
111 6 2 17.0175 20.8459 -8.77362
114 6 2 20.9857 20.4695 -5.91123
115 6 2 21.3528 17.0982 -5.16094
112 6 2 18.2205 22.743 -8.17395
113 6 2 20.419 22.6071 -7.16222
32 3 1 15.9451 -6.3165 6.26892
45 3 2 15.0547 -6.2829 5.59671
46 3 2 15.5838 -6.13566 7.30307
47 3 2 16.3184 -7.37146 6.11438
33 3 1 16.8422 -5.25432 5.88582
34 3 3 17.1467 -5.32932 4.67111
35 3 3 17.9219 -4.97216 6.66798
36 3 1 18.9748 -4.00109 6.46194
41 3 1 20.2862 -4.28698 6.81446
42 3 1 20.909 -5.63035 6.63287
43 3 3 20.9566 -6.13495 5.48455
44 3 3 21.9054 -5.92976 7.50785
40 3 1 21.156 -3.2024 6.49862
51 3 2 22.2366 -3.41687 6.76972
52 3 2 22.8326 -5.85164 7.3995
37 3 1 18.4823 -2.64969 6.55648
38 3 1 19.3799 -1.65384 6.29414
39 3 1 20.7373 -1.87254 6.49792
48 3 2 17.4348 -2.40125 6.30405
49 3 2 19.0748 -0.642023 6.45966
50 3 2 21.4026 -1.21378 6.07079
55 4 3 5.41081 17.4947 8.69586
11 2 1 -12.1946 -23.5821 12.1114
12 2 1 -11.0881 -22.9148 11.3734
13 2 3 -10.8102 -23.3428 10.1863
14 2 3 -9.99286 -22.6184 12.1681
24 2 2 -13.1284 -23.6108 11.4946
25 2 2 -12.2868 -23.0112 13.0188
26 2 2 -11.8141 -24.6479 12.4188
21 2 1 -7.38498 -22.9872 13.4104
22 2 3 -7.12926 -23.9473 12.6865
23 2 3 -6.84566 -23.0037 14.6848
31 2 2 -5.86112 -22.8392 14.9923
27 2 2 -10.1677 -20.2752 10.8947
20 2 1 -7.85821 -21.6811 12.8513
16 2 1 -9.22061 -20.4818 11.3728
28 2 2 -8.59904 -18.5595 10.8379
15 2 1 -8.91356 -21.7186 11.8599
17 2 1 -8.23329 -19.4877 11.1657
18 2 1 -7.10892 -19.4849 12.1471
19 2 1 -6.78398 -20.7108 12.7474
29 2 2 -6.3008 -18.739 11.9783
30 2 2 -6.07564 -20.6795 13.5436
1 1 1 18.6841 7.10067 14.5591
2 1 1 19.4732 8.01275 15.1223
3 1 1 20.7886 8.45043 14.4932
7 1 2 17.7191 6.81488 14.9864
8 1 2 19.1829 8.58204 15.9932
5 1 4 20.8363 8.94752 13.217
10 1 2 20.685 8.31097 12.3999
4 1 3 21.8426 8.61873 15.2171
6 1 2 18.9877 6.63402 13.6256
9 1 2 20.8161 10.0413 13.1094
66 4 2 3.13547 17.6367 9.8194
69 4 2 5.78487 20.7094 9.30526
59 4 1 7.70844 21.6775 9.39258
68 4 2 4.2733 16.7688 10.9391
54 4 1 5.19026 18.1529 9.73137
53 4 1 4.00252 17.7259 10.4839
56 4 3 6.34938 18.513 10.5679
57 4 1 7.30574 19.4313 10.0975
58 4 1 6.77236 20.7002 9.8087
60 4 1 9.05118 21.5938 9.8853
62 4 1 8.633 19.3368 10.6669
67 4 2 3.77909 18.4055 11.3399
63 4 1 9.33014 17.9982 10.6781
61 4 1 9.55471 20.3535 10.3255
64 4 3 9.30312 17.3075 9.59428
65 4 3 10.4121 17.836 11.5191
72 4 2 10.4705 20.4518 10.955
73 4 2 10.2553 18.0703 12.4645
70 4 2 7.30583 22.6654 9.14988
71 4 2 9.80375 22.3142 9.57712
ITEM: TIMESTEP
3460
ITEM: NUMBER OF ATOMS
115
ITEM: BOX BOUNDS pp pp pp
-2.8628399999999999e+01 2.8628399999999999e+01
-2.8628399999999999e+01 2.8628399999999999e+01
-2.8628399999999999e+01 2.8628399999999999e+01
ITEM: ATOMS id mol type x y z
74 5 1 12.7933 -12.333 -12.7772
75 5 1 13.6981 -11.21 -13.0987
76 5 3 13.747 -10.9248 -14.3259
77 5 3 14.825 -11.1915 -12.2398
78 5 1 15.4991 -10.0186 -11.8762
87 5 2 11.8613 -12.1818 -13.2673
88 5 2 12.7131 -12.4151 -11.6458
89 5 2 13.1907 -13.2731 -13.1081
83 5 1 16.8257 -10.1284 -11.2334
84 5 1 17.7994 -11.2079 -11.6024
85 5 3 17.4432 -12.3309 -12.1107
86 5 3 19.0429 -11.3055 -10.9933
94 5 2 19.404 -11.9946 -10.3032
79 5 1 14.7232 -8.90661 -11.4712
80 5 1 15.3804 -7.68168 -11.4755
90 5 2 13.7306 -8.85539 -11.87
91 5 2 14.7916 -6.81095 -11.1265
81 5 1 16.7074 -7.78133 -10.9027
82 5 1 17.5018 -8.85193 -11.1958
92 5 2 17.2418 -6.8316 -10.7785
93 5 2 17.9493 -8.6442 -12.1424
97 6 3 16.7792 18.2482 -10.015
95 6 1 16.0766 16.476 -8.46729
108 6 2 15.2556 16.1828 -9.15505
109 6 2 15.7227 16.3854 -7.43174
110 6 2 16.869 15.7718 -8.56905
96 6 1 16.5139 17.8791 -8.79733
98 6 3 17.5059 18.2913 -7.88464
99 6 1 18.3021 19.3659 -7.69472
100 6 1 17.8075 20.6195 -8.06983
101 6 1 18.6613 21.7529 -8.09176
102 6 1 19.6858 21.7421 -7.09935
103 6 1 20.1816 20.4755 -6.74646
104 6 1 19.1844 19.3525 -6.53596
105 6 1 19.7292 18.0805 -5.95044
106 6 3 18.9203 17.1652 -5.73212
107 6 3 20.9522 17.9967 -5.26155
111 6 2 17.2338 20.7277 -8.97161
114 6 2 20.9173 20.5635 -5.98648
115 6 2 21.2323 17.0537 -4.96789
112 6 2 18.3035 22.728 -8.39136
113 6 2 20.426 22.5142 -7.33726
32 3 1 15.7877 -6.27656 6.31118
45 3 2 14.9276 -6.30633 5.58121
46 3 2 15.3552 -6.15744 7.29532
47 3 2 16.1942 -7.29475 6.29969
33 3 1 16.8339 -5.26514 5.90191
34 3 3 17.0051 -5.30995 4.65247
35 3 3 17.9585 -5.05603 6.69487
36 3 1 18.8731 -3.94543 6.49563
41 3 1 20.2601 -4.23636 6.88816
42 3 1 20.8793 -5.66837 6.70785
43 3 3 21.0061 -6.10945 5.52216
44 3 3 21.9923 -5.95317 7.53967
40 3 1 21.1685 -3.19561 6.4984
51 3 2 22.1726 -3.32472 6.73678
52 3 2 22.8743 -5.39527 7.4195
37 3 1 18.4451 -2.56507 6.54209
38 3 1 19.4243 -1.55029 6.23749
39 3 1 20.7553 -1.87503 6.54839
48 3 2 17.4151 -2.2975 6.23343
49 3 2 19.1153 -0.500327 6.30451
50 3 2 21.5558 -1.15708 6.27164
55 4 3 5.40174 17.5288 8.73723
11 2 1 -12.2116 -23.5138 12.12
12 2 1 -11.0758 -22.9538 11.3496
13 2 3 -10.9576 -23.4697 10.1767
14 2 3 -9.94558 -22.5577 12.1077
24 2 2 -13.0502 -23.617 11.4374
25 2 2 -12.4667 -22.8356 12.9936
26 2 2 -11.8221 -24.4549 12.5257
21 2 1 -7.38853 -23.0184 13.4182
22 2 3 -6.95868 -23.9271 12.7159
23 2 3 -6.86637 -22.9885 14.6234
31 2 2 -5.88626 -22.8313 14.7386
27 2 2 -10.1823 -20.2352 10.7822
20 2 1 -7.93764 -21.6741 12.9218
16 2 1 -9.29468 -20.3962 11.3635
28 2 2 -8.36633 -18.5452 10.6152
15 2 1 -8.95373 -21.6022 11.9038
17 2 1 -8.2413 -19.4176 11.1863
18 2 1 -7.22419 -19.4257 12.1307
19 2 1 -6.90883 -20.702 12.7994
29 2 2 -6.47526 -18.6381 12.0148
30 2 2 -6.25804 -20.5472 13.6478
1 1 1 18.7254 7.06679 14.6022
2 1 1 19.5055 7.94518 15.1532
3 1 1 20.7833 8.58186 14.595
7 1 2 17.8341 6.6618 15.0096
8 1 2 19.2289 8.43206 16.1079
5 1 4 20.8605 8.97155 13.2002
10 1 2 20.4498 8.41127 12.4682
4 1 3 21.8913 8.57135 15.2802
6 1 2 19.0182 6.64878 13.6219
9 1 2 21.0406 9.98917 12.9979
66 4 2 3.18791 17.7183 9.78729
69 4 2 5.81891 20.6726 9.46794
59 4 1 7.69186 21.687 9.45073
68 4 2 4.12527 16.5611 10.844
54 4 1 5.13752 18.1577 9.7597
53 4 1 3.99575 17.6454 10.547
56 4 3 6.20877 18.4756 10.5572
57 4 1 7.29597 19.354 10.1553
58 4 1 6.81585 20.6931 9.86759
60 4 1 9.01912 21.616 9.87834
62 4 1 8.61713 19.2651 10.634
67 4 2 3.73039 18.2941 11.3647
63 4 1 9.23689 17.9491 10.6435
61 4 1 9.52848 20.3456 10.2414
64 4 3 9.40634 17.3223 9.55219
65 4 3 10.3167 17.8664 11.5151
72 4 2 10.4099 20.423 10.8078
73 4 2 10.1921 18.3028 12.4111
70 4 2 7.28307 22.6982 9.43503
71 4 2 9.72914 22.3376 9.43847
ITEM: TIMESTEP
3480
ITEM: NUMBER OF ATOMS
115
ITEM: BOX BOUNDS pp pp pp
-2.8628399999999999e+01 2.8628399999999999e+01
-2.8628399999999999e+01 2.8628399999999999e+01
-2.8628399999999999e+01 2.8628399999999999e+01
ITEM: ATOMS id mol type x y z
74 5 1 12.7069 -12.4066 -12.8408
75 5 1 13.6098 -11.2093 -13.0356
76 5 3 13.8234 -10.7547 -14.2262
77 5 3 14.7696 -11.1899 -12.2249
78 5 1 15.4817 -10.0623 -11.9178
87 5 2 11.7633 -12.2802 -13.4639
88 5 2 12.4458 -12.5382 -11.8139
89 5 2 13.2201 -13.337 -13.1509
83 5 1 16.8076 -10.1676 -11.2726
84 5 1 17.7615 -11.2287 -11.6101
85 5 3 17.427 -12.329 -12.1444
86 5 3 19.0568 -11.2272 -11.0062
94 5 2 19.2574 -11.9127 -10.331
79 5 1 14.6827 -8.97341 -11.5469
80 5 1 15.3621 -7.69959 -11.3887
90 5 2 13.6265 -8.84197 -11.9068
91 5 2 14.788 -6.85812 -11.1207
81 5 1 16.621 -7.78062 -10.8271
82 5 1 17.4044 -8.89585 -11.1801
92 5 2 17.0218 -6.81019 -10.6181
93 5 2 18.2106 -8.73088 -11.8656
97 6 3 16.8193 18.115 -10.0571
95 6 1 16.0908 16.5925 -8.46199
108 6 2 15.1891 16.2526 -9.00514
109 6 2 15.8851 16.5267 -7.34035
110 6 2 16.8759 15.9251 -8.64186
96 6 1 16.5693 17.9239 -8.79153
98 6 3 17.4211 18.3346 -7.75063
99 6 1 18.2539 19.425 -7.65976
100 6 1 17.696 20.6844 -8.08594
101 6 1 18.6892 21.6988 -8.10715
102 6 1 19.666 21.6854 -7.06526
103 6 1 20.1825 20.4435 -6.62803
104 6 1 19.1759 19.4447 -6.56806
105 6 1 19.6838 18.0621 -6.0114
106 6 3 18.8162 17.1634 -5.71616
107 6 3 20.8528 18.0157 -5.2094
111 6 2 16.9232 20.78 -8.87217
114 6 2 21.0323 20.4096 -5.93309
115 6 2 21.5902 17.2867 -5.2785
112 6 2 18.3377 22.6638 -8.29713
113 6 2 20.2693 22.5799 -7.0434
32 3 1 15.7561 -6.23263 6.3682
45 3 2 14.7987 -6.31935 5.79074
46 3 2 15.574 -5.88941 7.38552
47 3 2 16.1415 -7.25454 6.51772
33 3 1 16.7402 -5.25734 5.85031
34 3 3 16.8875 -5.24846 4.62253
35 3 3 17.9848 -4.98361 6.5793
36 3 1 18.8804 -3.94706 6.43215
41 3 1 20.2248 -4.20086 6.87299
42 3 1 20.8497 -5.57397 6.75431
43 3 3 20.9318 -6.05667 5.61905
44 3 3 21.9655 -5.88148 7.51262
40 3 1 21.1589 -3.1515 6.63365
51 3 2 22.1358 -3.27801 7.06409
52 3 2 22.7508 -5.25511 7.44043
37 3 1 18.4584 -2.58433 6.48512
38 3 1 19.4309 -1.56404 6.16483
39 3 1 20.6799 -1.82203 6.62709
48 3 2 17.5023 -2.29814 6.17682
49 3 2 19.1601 -0.501775 6.19912
50 3 2 21.3839 -1.05977 6.43274
55 4 3 5.4313 17.5261 8.66974
11 2 1 -12.2561 -23.4554 12.1316
12 2 1 -11.112 -22.8738 11.3441
13 2 3 -10.9698 -23.4324 10.2098
14 2 3 -9.99157 -22.5008 12.1016
24 2 2 -13.1291 -23.4442 11.4143
25 2 2 -12.4369 -22.792 13.0184
26 2 2 -12.037 -24.4809 12.4991
21 2 1 -7.48138 -22.9988 13.4479
22 2 3 -6.98603 -23.8486 12.7138
23 2 3 -6.88878 -22.9049 14.6704
31 2 2 -5.85884 -22.7244 14.7315
27 2 2 -9.99991 -20.2709 10.448
20 2 1 -7.9386 -21.6426 12.8672
16 2 1 -9.36914 -20.3263 11.3437
28 2 2 -8.5444 -18.4234 10.9803
15 2 1 -8.95166 -21.5875 11.8553
17 2 1 -8.27386 -19.4053 11.2721
18 2 1 -7.30456 -19.4611 12.2106
19 2 1 -6.94031 -20.6607 12.8086
29 2 2 -6.51918 -18.7472 12.0615
30 2 2 -6.12535 -20.6115 13.5046
1 1 1 18.8454 7.05112 14.6321
2 1 1 19.6164 7.93789 15.2075
3 1 1 20.7911 8.47112 14.6093
7 1 2 17.9683 6.73997 15.1798
8 1 2 19.383 8.213 16.2494
5 1 4 20.8836 8.94938 13.2443
10 1 2 20.2782 8.52223 12.4565
4 1 3 21.8046 8.59267 15.3172
6 1 2 18.9585 6.57515 13.6881
9 1 2 21.3394 9.87179 12.9851
66 4 2 3.01267 17.4864 10.0007
69 4 2 5.79063 20.9046 9.72793
59 4 1 7.74421 21.6464 9.40189
68 4 2 4.28236 16.6423 11.04
54 4 1 5.12316 18.1283 9.72076
53 4 1 3.94728 17.6123 10.5963
56 4 3 6.20144 18.5697 10.5632
57 4 1 7.24795 19.4264 10.0911
58 4 1 6.80219 20.7505 9.96369
60 4 1 9.05551 21.5989 9.93328
62 4 1 8.64158 19.2996 10.6177
67 4 2 3.71479 18.347 11.4501
63 4 1 9.24887 17.9381 10.6254
61 4 1 9.53304 20.3115 10.1709
64 4 3 9.48739 17.336 9.54825
65 4 3 10.2576 17.9085 11.5138
72 4 2 10.5529 20.2819 10.4904
73 4 2 10.1516 18.4081 12.4462
70 4 2 7.4185 22.5894 9.17573
71 4 2 9.78079 22.2458 9.47605
ITEM: TIMESTEP
3500
ITEM: NUMBER OF ATOMS
115
ITEM: BOX BOUNDS pp pp pp
-2.8628399999999999e+01 2.8628399999999999e+01
-2.8628399999999999e+01 2.8628399999999999e+01
-2.8628399999999999e+01 2.8628399999999999e+01
ITEM: ATOMS id mol type x y z
74 5 1 12.6671 -12.3959 -12.9023
75 5 1 13.6046 -11.2632 -12.9742
76 5 3 13.7513 -10.7557 -14.1387
77 5 3 14.6735 -11.2581 -12.1691
78 5 1 15.4998 -10.1058 -11.9666
87 5 2 11.7961 -12.1819 -13.5673
88 5 2 12.3472 -12.5366 -11.8823
89 5 2 13.2996 -13.3318 -13.1583
83 5 1 16.767 -10.2085 -11.2725
84 5 1 17.7604 -11.2576 -11.6681
85 5 3 17.427 -12.3703 -12.1473
86 5 3 19.0532 -11.2916 -11.0757
94 5 2 19.1976 -11.7139 -10.1647
79 5 1 14.6805 -9.02226 -11.5004
80 5 1 15.3055 -7.78917 -11.3244
90 5 2 13.8 -8.77856 -12.011
91 5 2 14.641 -6.96317 -11.055
81 5 1 16.5775 -7.79363 -10.7201
82 5 1 17.3557 -8.90535 -11.0704
92 5 2 16.9902 -6.82325 -10.6805
93 5 2 18.0673 -8.63321 -11.8375
97 6 3 16.9384 18.1752 -9.94152
95 6 1 15.9912 16.6106 -8.51104
108 6 2 15.1171 16.3354 -9.13146
109 6 2 15.6859 16.4401 -7.37177
110 6 2 16.7966 15.842 -8.80121
96 6 1 16.5295 18.0024 -8.73616
98 6 3 17.3133 18.3924 -7.70745
99 6 1 18.3173 19.3941 -7.63972
100 6 1 17.8142 20.6552 -8.08346
101 6 1 18.7378 21.7226 -8.0188
102 6 1 19.6644 21.7039 -7.03361
103 6 1 20.1082 20.4636 -6.57812
104 6 1 19.1901 19.3885 -6.52621
105 6 1 19.6164 18.0395 -5.92385
106 6 3 18.7675 17.1523 -5.6692
107 6 3 20.7337 17.9657 -5.15616
111 6 2 17.1509 20.7708 -8.96722
114 6 2 20.7395 20.5813 -5.6786
115 6 2 21.5405 17.4881 -5.44902
112 6 2 18.4427 22.6675 -8.44524
113 6 2 20.424 22.4973 -7.06695
32 3 1 15.879 -6.2298 6.46896
45 3 2 14.911 -6.30462 5.85045
46 3 2 15.5965 -6.05064 7.52161
47 3 2 16.3107 -7.23782 6.52603
33 3 1 16.7291 -5.17477 5.80238
34 3 3 16.8533 -5.25506 4.5792
35 3 3 17.9403 -4.9803 6.55634
36 3 1 18.9038 -3.99134 6.34017
41 3 1 20.1894 -4.163 6.96169
42 3 1 20.8325 -5.49414 6.78647
43 3 3 20.8255 -6.06847 5.62854
44 3 3 21.9649 -5.75249 7.59055
40 3 1 21.1373 -3.10163 6.70638
51 3 2 22.1602 -3.19009 7.17861
52 3 2 22.8015 -5.50313 7.10517
37 3 1 18.4792 -2.6295 6.49918
38 3 1 19.3562 -1.61325 6.13929
39 3 1 20.6564 -1.73786 6.6874
48 3 2 17.4617 -2.40612 6.20044
49 3 2 18.9227 -0.639777 6.15949
50 3 2 21.3263 -0.963725 6.39943
55 4 3 5.39226 17.625 8.73729
11 2 1 -12.3873 -23.4202 12.0973
12 2 1 -11.1689 -22.8887 11.3652
13 2 3 -10.8786 -23.3585 10.2161
14 2 3 -10.0914 -22.5187 12.1286
24 2 2 -13.3048 -23.2086 11.531
25 2 2 -12.3872 -22.8979 13.0745
26 2 2 -12.3092 -24.4606 12.3265
21 2 1 -7.44656 -22.9243 13.454
22 2 3 -7.02838 -23.8022 12.716
23 2 3 -6.86921 -22.9134 14.7546
31 2 2 -5.99497 -22.5597 14.9965
27 2 2 -10.0738 -20.246 10.6315
20 2 1 -7.92649 -21.6494 12.7877
16 2 1 -9.34492 -20.3196 11.4609
28 2 2 -8.64386 -18.395 10.984
15 2 1 -8.96558 -21.6661 11.8323
17 2 1 -8.33203 -19.3598 11.3697
18 2 1 -7.28731 -19.3683 12.3223
19 2 1 -6.89447 -20.7235 12.6216
29 2 2 -6.57073 -18.577 12.2847
30 2 2 -6.11305 -20.7041 13.4217
1 1 1 18.7886 6.99896 14.6153
2 1 1 19.5572 7.92406 15.236
3 1 1 20.8514 8.49309 14.5922
7 1 2 17.8591 6.66214 15.0273
8 1 2 19.2869 8.2704 16.1884
5 1 4 20.9007 8.98463 13.2841
10 1 2 20.3055 8.49381 12.5776
4 1 3 21.8971 8.49113 15.3056
6 1 2 19.0867 6.52452 13.6889
9 1 2 21.4197 9.86826 13.0256
66 4 2 3.23995 17.2075 9.87348
69 4 2 5.83374 20.961 9.30185
59 4 1 7.82954 21.6923 9.41532
68 4 2 4.54681 16.5828 11.0714
54 4 1 5.14844 18.1391 9.81295
53 4 1 4.06123 17.4654 10.5507
56 4 3 6.25865 18.6093 10.5265
57 4 1 7.21018 19.5199 10.0602
58 4 1 6.80391 20.8147 9.86908
60 4 1 9.08875 21.5553 9.95604
62 4 1 8.58304 19.3345 10.5261
67 4 2 3.76506 18.1899 11.2841
63 4 1 9.20488 17.9916 10.6592
61 4 1 9.55456 20.2776 10.1204
64 4 3 9.493 17.3744 9.62225
65 4 3 10.2779 17.88 11.5519
72 4 2 10.5448 20.2835 10.6127
73 4 2 10.2025 17.938 12.5802
70 4 2 7.53175 22.6642 9.0257
71 4 2 9.81352 22.3366 9.64304
ITEM: TIMESTEP
3520
ITEM: NUMBER OF ATOMS
115
ITEM: BOX BOUNDS pp pp pp
-2.8628399999999999e+01 2.8628399999999999e+01
-2.8628399999999999e+01 2.8628399999999999e+01
-2.8628399999999999e+01 2.8628399999999999e+01
ITEM: ATOMS id mol type x y z
74 5 1 12.683 -12.4765 -12.9323
75 5 1 13.5615 -11.2685 -12.9239
76 5 3 13.7536 -10.7006 -14.0709
77 5 3 14.7345 -11.2708 -12.1039
78 5 1 15.4261 -10.0968 -11.8905
87 5 2 11.8715 -12.2484 -13.6439
88 5 2 12.1846 -12.6413 -11.9126
89 5 2 13.2507 -13.3012 -13.2312
83 5 1 16.7453 -10.1814 -11.3011
84 5 1 17.7486 -11.2929 -11.6785
85 5 3 17.407 -12.4491 -12.1293
86 5 3 19.0567 -11.3097 -11.1952
94 5 2 19.1993 -11.9338 -10.3506
79 5 1 14.6425 -8.93933 -11.522
80 5 1 15.2711 -7.76225 -11.3282
90 5 2 13.605 -8.85905 -11.7913
91 5 2 14.599 -6.92092 -11.0573
81 5 1 16.4723 -7.9107 -10.6003
82 5 1 17.3402 -8.84528 -11.1421
92 5 2 16.8529 -6.94974 -10.1815
93 5 2 17.9532 -8.44941 -11.9628
97 6 3 16.9572 18.2122 -9.79911
95 6 1 15.9866 16.4693 -8.57133
108 6 2 15.2526 16.2189 -9.3842
109 6 2 15.5523 16.2892 -7.6262
110 6 2 16.8319 15.7949 -8.62402
96 6 1 16.5165 17.8946 -8.6988
98 6 3 17.3518 18.3135 -7.67114
99 6 1 18.3649 19.3387 -7.64102
100 6 1 17.9616 20.5944 -8.18343
101 6 1 18.744 21.7524 -8.05975
102 6 1 19.7193 21.7787 -7.01376
103 6 1 20.1089 20.5187 -6.473
104 6 1 19.1269 19.4062 -6.48892
105 6 1 19.5772 18.071 -5.7734
106 6 3 18.7661 17.1109 -5.58106
107 6 3 20.7173 17.9538 -5.05433
111 6 2 17.4204 20.5865 -9.12364
114 6 2 20.7907 20.4803 -5.66128
115 6 2 21.5571 17.777 -5.56493
112 6 2 18.2293 22.6771 -8.2731
113 6 2 20.4407 22.6258 -6.92726
32 3 1 15.9039 -6.18094 6.40462
45 3 2 14.9814 -6.20097 5.8556
46 3 2 15.6076 -6.03099 7.47931
47 3 2 16.355 -7.25322 6.35307
33 3 1 16.8262 -5.17274 5.82533
34 3 3 16.8313 -5.25059 4.58131
35 3 3 17.9629 -4.9839 6.61229
36 3 1 18.9409 -3.94759 6.4727
41 3 1 20.2642 -4.19953 6.92234
42 3 1 20.9407 -5.51471 6.80893
43 3 3 20.9475 -6.01563 5.64368
44 3 3 22.056 -5.69471 7.57715
40 3 1 21.1034 -3.08524 6.77947
51 3 2 22.1116 -3.0793 7.08061
52 3 2 22.9865 -5.31062 7.29891
37 3 1 18.4466 -2.62146 6.43759
38 3 1 19.3908 -1.59742 6.21137
39 3 1 20.5769 -1.7517 6.78269
48 3 2 17.4369 -2.38628 6.13966
49 3 2 19.0586 -0.608138 6.02019
50 3 2 21.3371 -0.951872 6.59727
55 4 3 5.34734 17.6578 8.70613
11 2 1 -12.3932 -23.4283 12.1066
12 2 1 -11.183 -22.9275 11.3788
13 2 3 -10.8144 -23.3976 10.2835
14 2 3 -10.1075 -22.5285 12.147
24 2 2 -13.3495 -23.4886 11.5931
25 2 2 -12.528 -22.866 13.071
26 2 2 -12.1461 -24.5238 12.4945
21 2 1 -7.43838 -22.9877 13.499
22 2 3 -6.97397 -23.8179 12.6942
23 2 3 -6.89948 -22.8573 14.8103
31 2 2 -5.92784 -22.6639 14.9552
27 2 2 -10.0519 -20.1931 10.6197
20 2 1 -7.90267 -21.6528 12.8583
16 2 1 -9.33433 -20.3084 11.4107
28 2 2 -8.82532 -18.3436 11.2391
15 2 1 -9.02299 -21.5994 11.9
17 2 1 -8.34806 -19.3246 11.352
18 2 1 -7.31864 -19.4138 12.3057
19 2 1 -6.84896 -20.7069 12.6277
29 2 2 -6.51311 -18.7276 12.1556
30 2 2 -5.9512 -20.6388 13.2297
1 1 1 18.7426 7.03059 14.6022
2 1 1 19.5665 7.96155 15.2324
3 1 1 20.8281 8.41359 14.6382
7 1 2 17.8414 6.7201 15.0652
8 1 2 19.2861 8.36472 16.2547
5 1 4 20.9033 9.00648 13.3377
10 1 2 20.4772 8.53432 12.5644
4 1 3 21.9035 8.42381 15.2521
6 1 2 18.9786 6.58129 13.6466
9 1 2 21.1814 10.0162 13.3178
66 4 2 3.25378 17.1383 9.88006
69 4 2 5.96799 21.0505 9.19775
59 4 1 7.84672 21.7829 9.36298
68 4 2 4.47859 16.5018 11.0567
54 4 1 5.1971 18.0962 9.88758
53 4 1 4.07954 17.3924 10.6534
56 4 3 6.30494 18.6735 10.5827
57 4 1 7.29554 19.528 10.0184
58 4 1 6.91137 20.8564 9.71027
60 4 1 9.12614 21.6271 9.91048
62 4 1 8.6267 19.3228 10.5246
67 4 2 3.72235 18.0953 11.4627
63 4 1 9.24693 17.9519 10.6792
61 4 1 9.57564 20.3294 10.128
64 4 3 9.48812 17.3912 9.62209
65 4 3 10.2639 17.8568 11.5679
72 4 2 10.6034 20.386 10.4483
73 4 2 10.1776 18.1425 12.495
70 4 2 7.4721 22.8002 9.03379
71 4 2 9.83451 22.4217 9.66753
ITEM: TIMESTEP
3540
ITEM: NUMBER OF ATOMS
115
ITEM: BOX BOUNDS pp pp pp
-2.8628399999999999e+01 2.8628399999999999e+01
-2.8628399999999999e+01 2.8628399999999999e+01
-2.8628399999999999e+01 2.8628399999999999e+01
ITEM: ATOMS id mol type x y z
74 5 1 12.7242 -12.4918 -12.9847
75 5 1 13.565 -11.2967 -13.0195
76 5 3 13.7198 -10.6522 -14.1057
77 5 3 14.7212 -11.2009 -12.1595
78 5 1 15.3913 -10.0055 -11.8411
87 5 2 11.8055 -12.2899 -13.5121
88 5 2 12.3738 -12.7861 -11.9397
89 5 2 13.2297 -13.303 -13.4626
83 5 1 16.7024 -10.2204 -11.2275
84 5 1 17.6804 -11.3054 -11.6689
85 5 3 17.253 -12.4223 -12.0838
86 5 3 19.0503 -11.284 -11.3024
94 5 2 19.2632 -11.5206 -10.3812
79 5 1 14.5901 -8.89945 -11.3985
80 5 1 15.3126 -7.7092 -11.2545
90 5 2 13.5716 -8.92211 -11.8713
91 5 2 14.7647 -6.86416 -11.0648
81 5 1 16.5577 -7.89229 -10.6368
82 5 1 17.325 -8.98296 -11.0873
92 5 2 17.0514 -6.93372 -10.3317
93 5 2 17.9564 -8.60227 -11.8695
97 6 3 16.9487 18.1572 -9.83851
95 6 1 15.9739 16.3895 -8.59421
108 6 2 15.1674 16.2435 -9.40029
109 6 2 15.5543 16.3641 -7.59245
110 6 2 16.7499 15.5685 -8.65462
96 6 1 16.6411 17.7374 -8.74392
98 6 3 17.391 18.2104 -7.65002
99 6 1 18.3113 19.3153 -7.61849
100 6 1 17.9164 20.5713 -8.17765
101 6 1 18.7048 21.7083 -8.02056
102 6 1 19.678 21.6762 -6.97771
103 6 1 20.1451 20.4647 -6.44675
104 6 1 19.1825 19.3535 -6.43
105 6 1 19.505 18.0949 -5.64742
106 6 3 18.7131 17.1484 -5.52535
107 6 3 20.6767 17.9209 -5.03338
111 6 2 17.3659 20.6091 -9.08748
114 6 2 20.7942 20.6711 -5.59749
115 6 2 21.4963 17.9435 -5.67053
112 6 2 18.3479 22.6771 -8.35391
113 6 2 20.3697 22.5129 -6.9672
32 3 1 15.8592 -6.10289 6.41127
45 3 2 14.8405 -6.04913 5.95314
46 3 2 15.7424 -5.92669 7.55756
47 3 2 16.2718 -7.12222 6.32033
33 3 1 16.8758 -5.15893 5.84919
34 3 3 16.9482 -5.16699 4.58753
35 3 3 18.0543 -5.00249 6.67088
36 3 1 18.9373 -3.94087 6.47003
41 3 1 20.2149 -4.17449 6.98233
42 3 1 20.8873 -5.47731 6.83145
43 3 3 21.0224 -5.99283 5.65066
44 3 3 22.1139 -5.76878 7.55863
40 3 1 21.1485 -3.09282 6.71912
51 3 2 22.1812 -3.05098 7.17306
52 3 2 23.0764 -5.45297 7.29875
37 3 1 18.4161 -2.62844 6.39557
38 3 1 19.3265 -1.55241 6.23594
39 3 1 20.6054 -1.78271 6.88948
48 3 2 17.4212 -2.45716 6.02627
49 3 2 18.9099 -0.561831 6.37143
50 3 2 21.3261 -1.0344 6.85991
55 4 3 5.367 17.7565 8.6972
11 2 1 -12.2671 -23.459 12.2109
12 2 1 -11.0712 -22.9112 11.4561
13 2 3 -10.7755 -23.4406 10.3394
14 2 3 -9.99133 -22.5352 12.2507
24 2 2 -13.1685 -23.454 11.5132
25 2 2 -12.5539 -22.8393 13.0851
26 2 2 -12.1415 -24.5362 12.5633
21 2 1 -7.49768 -22.901 13.4596
22 2 3 -6.96272 -23.8114 12.7884
23 2 3 -7.0165 -23.001 14.7599
31 2 2 -6.12984 -22.5347 14.9117
27 2 2 -10.0565 -20.3832 10.676
20 2 1 -7.90019 -21.6078 12.8462
16 2 1 -9.36114 -20.3674 11.4292
28 2 2 -8.78319 -18.3697 10.8403
15 2 1 -8.98454 -21.6276 11.9359
17 2 1 -8.39177 -19.3192 11.3248
18 2 1 -7.33732 -19.3363 12.2346
19 2 1 -6.87483 -20.6686 12.5624
29 2 2 -6.62973 -18.4828 12.364
30 2 2 -6.07448 -20.6602 13.2455
1 1 1 18.7005 7.12967 14.6614
2 1 1 19.6198 7.90615 15.2635
3 1 1 20.9092 8.34094 14.6327
7 1 2 17.6617 7.05555 15.055
8 1 2 19.3424 8.48397 16.1069
5 1 4 20.8983 9.00261 13.2824
10 1 2 20.7435 8.52367 12.3508
4 1 3 21.9747 8.37778 15.2839
6 1 2 18.8785 6.73884 13.64
9 1 2 21.1149 10.0115 13.2853
66 4 2 3.37624 17.2831 9.90082
69 4 2 5.86606 21.0283 9.29095
59 4 1 7.84166 21.8395 9.36445
68 4 2 4.63492 16.3657 10.9411
54 4 1 5.22375 18.1408 9.90771
53 4 1 4.18359 17.3829 10.6706
56 4 3 6.3423 18.6477 10.587
57 4 1 7.33113 19.5 10.0361
58 4 1 6.85613 20.8569 9.76806
60 4 1 9.15668 21.706 9.86062
62 4 1 8.6561 19.4454 10.5495
67 4 2 3.84871 18.0035 11.6151
63 4 1 9.25791 18.0524 10.6199
61 4 1 9.57254 20.3546 10.0156
64 4 3 9.44906 17.3368 9.58367
65 4 3 10.2404 17.8993 11.6604
72 4 2 10.6134 20.2645 10.1871
73 4 2 10.1554 18.1745 12.626
70 4 2 7.47186 22.8357 9.34343
71 4 2 9.8271 22.4646 9.60462
ITEM: TIMESTEP
3560
ITEM: NUMBER OF ATOMS
115
ITEM: BOX BOUNDS pp pp pp
-2.8628399999999999e+01 2.8628399999999999e+01
-2.8628399999999999e+01 2.8628399999999999e+01
-2.8628399999999999e+01 2.8628399999999999e+01
ITEM: ATOMS id mol type x y z
74 5 1 12.8322 -12.5212 -13.0613
75 5 1 13.6477 -11.2458 -13.0999
76 5 3 13.7129 -10.5858 -14.1573
77 5 3 14.6438 -11.2122 -12.1917
78 5 1 15.3574 -10.0425 -11.8356
87 5 2 11.8122 -12.3582 -13.3396
88 5 2 12.6212 -12.8475 -12.0065
89 5 2 13.3193 -13.4093 -13.6489
83 5 1 16.6258 -10.2106 -11.1724
84 5 1 17.5625 -11.297 -11.6418
85 5 3 17.1665 -12.4261 -12.018
86 5 3 18.9435 -11.2628 -11.2433
94 5 2 19.3278 -11.6732 -10.4055
79 5 1 14.6025 -8.89531 -11.3789
80 5 1 15.3748 -7.72264 -11.1911
90 5 2 13.5976 -8.75433 -11.8486
91 5 2 14.7637 -7.00779 -10.743
81 5 1 16.6586 -7.79309 -10.6286
82 5 1 17.3734 -8.92907 -11.0809
92 5 2 17.2037 -6.86251 -10.4734
93 5 2 17.9624 -8.62177 -11.9089
97 6 3 16.9255 18.1386 -9.9412
95 6 1 16.0826 16.335 -8.5745
108 6 2 15.3964 16.142 -9.34296
109 6 2 15.6092 16.2693 -7.58931
110 6 2 16.8677 15.6176 -8.64949
96 6 1 16.6339 17.7729 -8.79288
98 6 3 17.4256 18.2323 -7.70249
99 6 1 18.2549 19.3695 -7.64567
100 6 1 17.8016 20.5844 -8.15854
101 6 1 18.7909 21.6079 -8.04283
102 6 1 19.6389 21.6548 -6.9164
103 6 1 20.0794 20.4537 -6.36457
104 6 1 19.2229 19.3544 -6.52751
105 6 1 19.4584 18.1998 -5.63477
106 6 3 18.7641 17.1739 -5.62663
107 6 3 20.6783 17.973 -4.94682
111 6 2 17.1854 20.5777 -9.04302
114 6 2 20.598 20.5858 -5.41976
115 6 2 21.5561 17.9082 -5.44653
112 6 2 18.4675 22.5741 -8.35251
113 6 2 20.289 22.5505 -6.91659
32 3 1 15.9473 -6.02506 6.56222
45 3 2 14.9588 -5.9106 6.07052
46 3 2 15.8423 -5.87783 7.63048
47 3 2 16.3365 -7.06931 6.37409
33 3 1 16.9035 -5.06724 5.93727
34 3 3 17.0523 -5.04677 4.66397
35 3 3 18.1475 -5.01168 6.57874
36 3 1 19.0224 -3.98606 6.35677
41 3 1 20.366 -4.13277 6.92656
42 3 1 21.008 -5.44923 6.73764
43 3 3 20.9482 -5.97267 5.63599
44 3 3 22.0815 -5.76814 7.4915
40 3 1 21.2171 -3.06182 6.72938
51 3 2 22.1931 -3.1037 7.14676
52 3 2 22.9798 -5.43722 7.22049
37 3 1 18.4083 -2.73846 6.48059
38 3 1 19.3024 -1.66931 6.34937
39 3 1 20.6057 -1.78214 6.86008
48 3 2 17.4941 -2.62052 5.84601
49 3 2 18.8542 -0.695346 6.3945
50 3 2 21.2616 -0.969811 6.58572
55 4 3 5.3721 17.7241 8.74358
11 2 1 -12.1843 -23.4048 12.2614
12 2 1 -11.0725 -22.916 11.4327
13 2 3 -10.8036 -23.5381 10.3921
14 2 3 -9.95378 -22.659 12.2085
24 2 2 -13.1315 -23.5404 11.6648
25 2 2 -12.4368 -22.702 13.0515
26 2 2 -11.9211 -24.3431 12.7448
21 2 1 -7.42017 -22.925 13.46
22 2 3 -6.94886 -23.8776 12.7616
23 2 3 -7.10043 -22.8865 14.7831
31 2 2 -6.12171 -22.8338 15.0369
27 2 2 -10.1684 -20.2599 10.7157
20 2 1 -7.85661 -21.6495 12.7973
16 2 1 -9.31412 -20.3702 11.4025
28 2 2 -8.66276 -18.4587 10.9289
15 2 1 -8.94831 -21.7272 11.836
17 2 1 -8.30425 -19.3815 11.2376
18 2 1 -7.29685 -19.2983 12.1684
19 2 1 -6.85146 -20.63 12.5756
29 2 2 -6.548 -18.5147 11.9943
30 2 2 -6.06319 -20.6254 13.2882
1 1 1 18.8142 7.16984 14.6165
2 1 1 19.7185 7.97276 15.1827
3 1 1 20.9477 8.30048 14.5567
7 1 2 18.027 6.93096 15.2355
8 1 2 19.4301 8.28877 16.1353
5 1 4 20.9576 8.99696 13.2859
10 1 2 20.8898 8.42306 12.424
4 1 3 21.9197 8.27569 15.3391
6 1 2 18.9775 6.69599 13.6749
9 1 2 21.2626 9.97606 13.1657
66 4 2 3.31248 17.2185 10.2326
69 4 2 5.89112 20.9919 9.45636
59 4 1 7.76091 21.8819 9.38634
68 4 2 4.77877 16.2863 10.949
54 4 1 5.18308 18.1693 9.9124
53 4 1 4.26737 17.2951 10.7501
56 4 3 6.40133 18.6418 10.5461
57 4 1 7.31695 19.5541 10.0412
58 4 1 6.83791 20.9027 9.84499
60 4 1 9.10409 21.7009 9.81954
62 4 1 8.68943 19.4218 10.4269
67 4 2 4.15261 17.7786 11.7295
63 4 1 9.36108 18.0775 10.6279
61 4 1 9.61544 20.3776 9.92083
64 4 3 9.46218 17.3428 9.6247
65 4 3 10.2426 17.8718 11.6388
72 4 2 10.6611 20.3394 10.1906
73 4 2 10.0917 18.2325 12.6268
70 4 2 7.32727 22.8532 9.22102
71 4 2 9.78677 22.5015 9.61777
ITEM: TIMESTEP
3580
ITEM: NUMBER OF ATOMS
115
ITEM: BOX BOUNDS pp pp pp
-2.8628399999999999e+01 2.8628399999999999e+01
-2.8628399999999999e+01 2.8628399999999999e+01
-2.8628399999999999e+01 2.8628399999999999e+01
ITEM: ATOMS id mol type x y z
74 5 1 12.8872 -12.5208 -13.0433
75 5 1 13.6164 -11.244 -13.0881
76 5 3 13.7408 -10.6518 -14.1774
77 5 3 14.6856 -11.1545 -12.1518
78 5 1 15.3714 -9.98603 -11.8773
87 5 2 11.8511 -12.5559 -13.3767
88 5 2 12.7757 -12.8067 -11.9752
89 5 2 13.4778 -13.2206 -13.6646
83 5 1 16.6648 -10.1432 -11.3375
84 5 1 17.5592 -11.3191 -11.5286
85 5 3 17.1352 -12.4295 -11.9211
86 5 3 18.8974 -11.2718 -11.2209
94 5 2 19.278 -11.7216 -10.388
79 5 1 14.5752 -8.92579 -11.2924
80 5 1 15.3264 -7.71489 -11.0649
90 5 2 13.6105 -8.8644 -11.6765
91 5 2 14.7524 -6.78515 -10.7318
81 5 1 16.6455 -7.83472 -10.6123
82 5 1 17.3624 -8.94847 -11.1629
92 5 2 17.1854 -6.94779 -10.3328
93 5 2 18.2708 -8.75195 -11.7838
97 6 3 16.9394 18.0854 -9.91139
95 6 1 16.1708 16.3504 -8.61089
108 6 2 15.4487 16.075 -9.44475
109 6 2 15.7295 16.0975 -7.6193
110 6 2 17.1052 15.7597 -8.74825
96 6 1 16.5816 17.7715 -8.78179
98 6 3 17.3781 18.2255 -7.74572
99 6 1 18.249 19.3417 -7.63841
100 6 1 17.8467 20.5623 -8.09162
101 6 1 18.7784 21.6355 -8.08396
102 6 1 19.5668 21.7368 -6.93772
103 6 1 19.9359 20.4751 -6.42763
104 6 1 19.0905 19.3551 -6.42841
105 6 1 19.5149 18.1178 -5.6492
106 6 3 18.7407 17.1209 -5.59701
107 6 3 20.6872 18.0758 -4.9585
111 6 2 17.154 20.5639 -8.94368
114 6 2 20.5188 20.5855 -5.47937
115 6 2 21.3909 17.5775 -5.42908
112 6 2 18.5272 22.5592 -8.58545
113 6 2 20.4281 22.3693 -7.06234
32 3 1 15.9718 -5.95047 6.65677
45 3 2 14.9609 -5.89 6.13914
46 3 2 15.9432 -5.46837 7.67732
47 3 2 16.2344 -7.04484 6.78009
33 3 1 17.0341 -5.14475 5.97285
34 3 3 17.0232 -5.09756 4.71327
35 3 3 18.2839 -5.06053 6.53799
36 3 1 19.1114 -3.95897 6.41756
41 3 1 20.4373 -4.10753 6.89493
42 3 1 21.041 -5.46753 6.66805
43 3 3 20.8189 -6.04224 5.53639
44 3 3 22.136 -5.70627 7.53875
40 3 1 21.2791 -2.98913 6.72102
51 3 2 22.2876 -3.01858 7.02744
52 3 2 23.0861 -5.54438 7.22175
37 3 1 18.49 -2.70068 6.58927
38 3 1 19.3224 -1.62015 6.39276
39 3 1 20.6297 -1.73064 6.77473
48 3 2 17.4343 -2.59277 6.28954
49 3 2 18.8508 -0.66138 6.54079
50 3 2 21.2501 -0.781162 6.56411
55 4 3 5.27303 17.7609 8.7731
11 2 1 -12.1748 -23.3628 12.2474
12 2 1 -11.0488 -22.9392 11.4305
13 2 3 -10.8425 -23.6157 10.4283
14 2 3 -9.88531 -22.5294 12.1221
24 2 2 -13.0543 -23.3633 11.6191
25 2 2 -12.3703 -22.6507 13.071
26 2 2 -11.938 -24.3533 12.7541
21 2 1 -7.4047 -22.9106 13.4871
22 2 3 -7.07425 -23.9325 12.8158
23 2 3 -7.1108 -22.8043 14.8351
31 2 2 -6.16969 -22.9563 15.158
27 2 2 -10.1046 -20.3289 10.7953
20 2 1 -7.83166 -21.6462 12.7901
16 2 1 -9.29431 -20.3344 11.5078
28 2 2 -8.48811 -18.4291 10.7849
15 2 1 -8.89983 -21.6264 11.8345
17 2 1 -8.23849 -19.4252 11.2484
18 2 1 -7.28566 -19.3996 12.2351
19 2 1 -6.85755 -20.6511 12.6411
29 2 2 -6.45477 -18.7269 12.1192
30 2 2 -6.03219 -20.6205 13.3207
1 1 1 18.8912 7.08622 14.6407
2 1 1 19.7154 7.9839 15.1928
3 1 1 21.0428 8.3311 14.5813
7 1 2 17.9537 6.84594 15.241
8 1 2 19.364 8.37352 16.1211
5 1 4 21.123 8.95989 13.3618
10 1 2 20.5329 8.5818 12.6341
4 1 3 22.0547 8.20007 15.2767
6 1 2 19.011 6.51424 13.7276
9 1 2 21.2097 10.0575 13.4111
66 4 2 3.36165 17.1356 10.3088
69 4 2 5.84179 20.9565 9.68899
59 4 1 7.74923 21.8263 9.43027
68 4 2 4.814 16.293 10.7649
54 4 1 5.19931 18.1099 9.97598
53 4 1 4.33696 17.2362 10.7914
56 4 3 6.42929 18.545 10.4803
57 4 1 7.36312 19.4707 9.95362
58 4 1 6.87567 20.8133 9.87894
60 4 1 9.07779 21.7497 9.7763
62 4 1 8.72701 19.3791 10.4605
67 4 2 4.19121 17.6081 11.8351
63 4 1 9.33515 18.0222 10.6652
61 4 1 9.62118 20.4079 9.91209
64 4 3 9.51695 17.2595 9.65817
65 4 3 10.3495 17.9627 11.6573
72 4 2 10.6581 20.5549 10.276
73 4 2 10.243 18.373 12.6199
70 4 2 7.27532 22.839 9.47562
71 4 2 9.6881 22.4256 9.14387
ITEM: TIMESTEP
3600
ITEM: NUMBER OF ATOMS
115
ITEM: BOX BOUNDS pp pp pp
-2.8628399999999999e+01 2.8628399999999999e+01
-2.8628399999999999e+01 2.8628399999999999e+01
-2.8628399999999999e+01 2.8628399999999999e+01
ITEM: ATOMS id mol type x y z
74 5 1 12.923 -12.5789 -13.0328
75 5 1 13.5909 -11.2372 -13.0696
76 5 3 13.7904 -10.7148 -14.1807
77 5 3 14.6708 -11.0748 -12.1802
78 5 1 15.3954 -9.91185 -11.8823
87 5 2 11.9619 -12.5015 -13.5841
88 5 2 12.6963 -12.8905 -12.0224
89 5 2 13.5303 -13.348 -13.516
83 5 1 16.7379 -10.0659 -11.2207
84 5 1 17.5778 -11.2536 -11.5455
85 5 3 17.1079 -12.4108 -11.8352
86 5 3 18.9212 -11.2418 -11.221
94 5 2 19.3131 -11.5762 -10.4138
79 5 1 14.683 -8.87846 -11.3566
80 5 1 15.2787 -7.67258 -11.0233
90 5 2 13.5917 -8.88928 -11.6051
91 5 2 14.6624 -7.06193 -10.3039
81 5 1 16.592 -7.82069 -10.6155
82 5 1 17.3523 -8.81316 -11.1838
92 5 2 17.0985 -6.91357 -10.4068
93 5 2 18.1324 -8.54242 -11.9298
97 6 3 17.0083 18.0207 -9.98104
95 6 1 16.1376 16.4108 -8.66225
108 6 2 15.3687 16.2004 -9.4594
109 6 2 15.7279 16.259 -7.65791
110 6 2 17.0105 15.7058 -8.77557
96 6 1 16.5744 17.8228 -8.80236
98 6 3 17.3609 18.2113 -7.68288
99 6 1 18.2099 19.3393 -7.6272
100 6 1 17.8066 20.5789 -8.09314
101 6 1 18.6991 21.6984 -8.06518
102 6 1 19.5434 21.7298 -6.98764
103 6 1 19.9141 20.5336 -6.37859
104 6 1 18.9839 19.4621 -6.37895
105 6 1 19.516 18.1036 -5.87495
106 6 3 18.7278 17.1386 -5.54409
107 6 3 20.679 18.0577 -5.04055
111 6 2 17.2468 20.5831 -9.00665
114 6 2 20.5314 20.6605 -5.52901
115 6 2 21.2814 17.1971 -5.08381
112 6 2 18.3749 22.7242 -8.3548
113 6 2 20.171 22.5982 -6.88738
32 3 1 15.9217 -5.97375 6.65187
45 3 2 14.9882 -5.84867 6.18178
46 3 2 15.7959 -5.6664 7.71858
47 3 2 16.1991 -7.08081 6.71383
33 3 1 17.0146 -5.16365 5.93949
34 3 3 16.9579 -5.20065 4.67396
35 3 3 18.2341 -5.01969 6.57735
36 3 1 19.0907 -3.87812 6.43301
41 3 1 20.4369 -4.08703 6.84161
42 3 1 21.0759 -5.3988 6.67899
43 3 3 20.8801 -6.09082 5.63183
44 3 3 22.1767 -5.82447 7.50377
40 3 1 21.2199 -2.95267 6.74104
51 3 2 22.2838 -3.06336 7.04033
52 3 2 23.1469 -5.41789 7.45187
37 3 1 18.4522 -2.54065 6.76731
38 3 1 19.3133 -1.47647 6.40724
39 3 1 20.6671 -1.59171 6.83856
48 3 2 17.4248 -2.39196 6.52545
49 3 2 18.8343 -0.523577 6.34759
50 3 2 21.2782 -0.792341 6.67367
55 4 3 5.181 17.779 8.76298
11 2 1 -12.2327 -23.2063 12.3445
12 2 1 -10.9996 -22.9557 11.4386
13 2 3 -10.8324 -23.6744 10.4251
14 2 3 -9.89165 -22.5311 12.1678
24 2 2 -13.047 -23.2301 11.6032
25 2 2 -12.3597 -22.4708 13.1882
26 2 2 -12.0776 -24.2283 12.7721
21 2 1 -7.49522 -22.9102 13.5484
22 2 3 -7.04093 -23.9525 12.9857
23 2 3 -7.04866 -22.8636 14.9036
31 2 2 -6.1176 -22.8418 15.241
27 2 2 -10.1178 -20.1521 10.7825
20 2 1 -7.84465 -21.6798 12.7868
16 2 1 -9.27291 -20.3257 11.4415
28 2 2 -8.58757 -18.4181 10.895
15 2 1 -8.87166 -21.6725 11.8478
17 2 1 -8.23462 -19.3855 11.2879
18 2 1 -7.26581 -19.3976 12.295
19 2 1 -6.77117 -20.6418 12.6825
29 2 2 -6.54868 -18.609 12.3843
30 2 2 -6.00238 -20.5796 13.5034
1 1 1 18.8988 7.07327 14.678
2 1 1 19.7709 7.96855 15.1947
3 1 1 21.114 8.26052 14.6387
7 1 2 17.8387 6.92156 15.0019
8 1 2 19.4164 8.56678 16.024
5 1 4 21.1806 8.96225 13.3682
10 1 2 20.6892 8.67982 12.4671
4 1 3 22.1897 8.14221 15.342
6 1 2 19.1989 6.40549 13.9311
9 1 2 21.5685 9.93027 13.4426
66 4 2 3.27278 17.2242 10.461
69 4 2 5.88488 20.8925 9.67965
59 4 1 7.72718 21.7826 9.42702
68 4 2 4.79462 16.2189 10.7286
54 4 1 5.2754 18.1061 9.96883
53 4 1 4.36901 17.2568 10.7991
56 4 3 6.57239 18.3959 10.408
57 4 1 7.38272 19.447 9.97575
58 4 1 6.88246 20.7972 9.98497
60 4 1 9.10828 21.6481 9.6747
62 4 1 8.70079 19.3494 10.4776
67 4 2 4.43856 17.589 11.9315
63 4 1 9.37765 18.0027 10.7524
61 4 1 9.54063 20.3203 10.0059
64 4 3 9.60405 17.2413 9.78518
65 4 3 10.4346 17.9373 11.6097
72 4 2 10.6195 20.3497 10.1495
73 4 2 10.5255 18.5563 12.3705
70 4 2 7.31706 22.6904 9.39748
71 4 2 9.74745 22.424 9.33575
ITEM: TIMESTEP
3620
ITEM: NUMBER OF ATOMS
115
ITEM: BOX BOUNDS pp pp pp
-2.8628399999999999e+01 2.8628399999999999e+01
-2.8628399999999999e+01 2.8628399999999999e+01
-2.8628399999999999e+01 2.8628399999999999e+01
ITEM: ATOMS id mol type x y z
74 5 1 13.0084 -12.597 -13.1251
75 5 1 13.6652 -11.227 -13.0744
76 5 3 13.8801 -10.6888 -14.2128
77 5 3 14.7609 -11.0685 -12.1542
78 5 1 15.4422 -9.92315 -11.8105
87 5 2 12.0562 -12.5299 -13.7758
88 5 2 12.7503 -13.0053 -12.1053
89 5 2 13.6991 -13.3609 -13.6176
83 5 1 16.7226 -10.0643 -11.1443
84 5 1 17.5759 -11.2444 -11.5864
85 5 3 17.0697 -12.3895 -11.783
86 5 3 18.9066 -11.3041 -11.2662
94 5 2 19.211 -11.6047 -10.3188
79 5 1 14.6594 -8.8364 -11.3251
80 5 1 15.2858 -7.67225 -11.002
90 5 2 13.7393 -8.75796 -11.8682
91 5 2 14.6839 -6.89985 -10.7328
81 5 1 16.6167 -7.7192 -10.5684
82 5 1 17.4155 -8.76808 -11.1361
92 5 2 17.1592 -6.77417 -10.4523
93 5 2 17.8055 -8.47707 -12.0504
97 6 3 17.0921 17.9948 -10.0489
95 6 1 16.0571 16.4241 -8.7273
108 6 2 15.4563 16.2373 -9.59824
109 6 2 15.3485 16.3318 -7.87914
110 6 2 16.8923 15.6641 -8.72734
96 6 1 16.636 17.8378 -8.88155
98 6 3 17.3572 18.2933 -7.79769
99 6 1 18.2081 19.3948 -7.61307
100 6 1 17.7054 20.6555 -8.15082
101 6 1 18.6315 21.7154 -8.12369
102 6 1 19.5194 21.8096 -7.04709
103 6 1 19.8777 20.5029 -6.43399
104 6 1 19.0499 19.3879 -6.45493
105 6 1 19.5596 18.0868 -5.86764
106 6 3 18.7828 17.1511 -5.54815
107 6 3 20.7415 18.0562 -5.1303
111 6 2 17.068 20.7101 -8.93301
114 6 2 20.5301 20.6338 -5.56207
115 6 2 21.0472 17.2987 -4.58464
112 6 2 18.3831 22.6522 -8.62839
113 6 2 20.2831 22.5594 -7.16389
32 3 1 15.8889 -5.98036 6.61063
45 3 2 14.8573 -5.69434 6.30555
46 3 2 15.8607 -5.83374 7.73484
47 3 2 16.0772 -7.06479 6.44445
33 3 1 16.8761 -5.16558 5.963
34 3 3 16.8767 -5.22992 4.70712
35 3 3 18.1134 -4.97662 6.64384
36 3 1 18.9708 -3.8311 6.63301
41 3 1 20.4528 -3.97721 6.88829
42 3 1 21.1299 -5.37205 6.71859
43 3 3 20.9443 -6.00841 5.65992
44 3 3 22.1773 -5.8233 7.4983
40 3 1 21.2861 -2.82469 6.67586
51 3 2 22.276 -2.89023 7.0772
52 3 2 23.0329 -5.38316 7.4833
37 3 1 18.4883 -2.50345 6.74488
38 3 1 19.3967 -1.44952 6.40633
39 3 1 20.6986 -1.6285 6.89688
48 3 2 17.4984 -2.36296 6.36294
49 3 2 18.9555 -0.517575 6.63897
50 3 2 21.2826 -0.815812 6.7115
55 4 3 5.16249 17.8594 8.72328
11 2 1 -12.1975 -23.2386 12.2579
12 2 1 -10.9802 -22.9528 11.4701
13 2 3 -10.7511 -23.5779 10.4434
14 2 3 -9.93078 -22.4899 12.2169
24 2 2 -13.119 -23.2624 11.6234
25 2 2 -12.2771 -22.4662 13.1244
26 2 2 -12.0702 -24.2615 12.6687
21 2 1 -7.4801 -22.9786 13.6117
22 2 3 -7.00714 -23.9515 12.9318
23 2 3 -7.06292 -22.8677 14.9113
31 2 2 -6.0794 -22.6041 15.1047
27 2 2 -9.85054 -20.2945 10.4859
20 2 1 -7.83055 -21.7183 12.869
16 2 1 -9.25685 -20.331 11.3943
28 2 2 -8.59621 -18.3728 11.0416
15 2 1 -8.82272 -21.6854 11.8535
17 2 1 -8.22603 -19.3388 11.3663
18 2 1 -7.23717 -19.382 12.3413
19 2 1 -6.81035 -20.6734 12.7286
29 2 2 -6.43842 -18.6217 12.3675
30 2 2 -6.04042 -20.7021 13.5019
1 1 1 18.9694 7.06289 14.6853
2 1 1 19.8039 8.0129 15.18
3 1 1 21.1218 8.23279 14.5856
7 1 2 18.0203 6.9734 15.0757
8 1 2 19.4412 8.54299 16.0843
5 1 4 21.3259 9.02276 13.3979
10 1 2 20.6426 8.91209 12.5308
4 1 3 22.1352 8.15353 15.3432
6 1 2 19.2313 6.4079 13.8283
9 1 2 21.6459 9.96045 13.5124
66 4 2 3.48661 17.1845 10.6607
69 4 2 5.78641 20.9065 9.96546
59 4 1 7.72614 21.7747 9.44451
68 4 2 4.86887 16.1384 10.9441
54 4 1 5.34687 18.0258 9.93868
53 4 1 4.54166 17.1952 10.9045
56 4 3 6.59785 18.3202 10.399
57 4 1 7.36562 19.4137 10.0587
58 4 1 6.8626 20.7487 10.0342
60 4 1 9.09388 21.6376 9.7738
62 4 1 8.77949 19.3659 10.5926
67 4 2 4.69461 17.6876 11.8836
63 4 1 9.34208 17.9893 10.8215
61 4 1 9.64271 20.3327 9.9838
64 4 3 9.56132 17.2408 9.8542
65 4 3 10.5179 17.9923 11.6056
72 4 2 10.7056 20.4923 10.2937
73 4 2 10.5883 18.2827 12.5637
70 4 2 7.29368 22.8086 9.51275
71 4 2 9.73223 22.3421 9.29389
ITEM: TIMESTEP
3640
ITEM: NUMBER OF ATOMS
115
ITEM: BOX BOUNDS pp pp pp
-2.8628399999999999e+01 2.8628399999999999e+01
-2.8628399999999999e+01 2.8628399999999999e+01
-2.8628399999999999e+01 2.8628399999999999e+01
ITEM: ATOMS id mol type x y z
74 5 1 13.0563 -12.5628 -13.2643
75 5 1 13.7486 -11.2469 -13.1538
76 5 3 13.9102 -10.5854 -14.2167
77 5 3 14.7189 -11.1228 -12.1482
78 5 1 15.4476 -9.91288 -11.7305
87 5 2 12.1949 -12.5758 -13.9771
88 5 2 12.6711 -12.8119 -12.2008
89 5 2 13.7854 -13.375 -13.5696
83 5 1 16.7629 -10.0297 -11.1915
84 5 1 17.6248 -11.1678 -11.7028
85 5 3 17.0726 -12.267 -11.789
86 5 3 18.9422 -11.3341 -11.2366
94 5 2 18.9941 -11.607 -10.3013
79 5 1 14.6081 -8.77183 -11.2644
80 5 1 15.3182 -7.59092 -11.1076
90 5 2 13.6555 -8.73093 -11.6929
91 5 2 14.7098 -6.9183 -10.5689
81 5 1 16.6622 -7.77376 -10.5751
82 5 1 17.4477 -8.80887 -11.1704
92 5 2 17.2064 -6.97657 -10.1498
93 5 2 18.0051 -8.51219 -12.0319
97 6 3 17.1841 18.0369 -10.0986
95 6 1 16.0018 16.4705 -8.8003
108 6 2 15.4596 16.1578 -9.69656
109 6 2 15.276 16.6192 -7.97679
110 6 2 16.8203 15.7406 -8.47499
96 6 1 16.6431 17.798 -8.98346
98 6 3 17.2855 18.3164 -7.85307
99 6 1 18.1316 19.4137 -7.69013
100 6 1 17.6303 20.7309 -8.01681
101 6 1 18.6167 21.7071 -8.23496
102 6 1 19.5469 21.8385 -7.1491
103 6 1 19.8972 20.6589 -6.4236
104 6 1 19.0304 19.4671 -6.52556
105 6 1 19.6204 18.1071 -5.94086
106 6 3 18.8384 17.1548 -5.66302
107 6 3 20.8078 18.0958 -5.16739
111 6 2 16.8926 20.7609 -8.85886
114 6 2 20.6769 20.7151 -5.60546
115 6 2 21.2786 17.309 -4.76523
112 6 2 18.3254 22.6931 -8.58471
113 6 2 20.2979 22.603 -7.24626
32 3 1 15.8371 -5.9755 6.66268
45 3 2 14.8251 -5.77902 6.21476
46 3 2 15.8405 -5.74507 7.71002
47 3 2 16.0992 -7.05452 6.55857
33 3 1 16.848 -5.09523 5.93897
34 3 3 16.8931 -5.18111 4.66648
35 3 3 18.1236 -4.87484 6.71545
36 3 1 19.0311 -3.77827 6.63869
41 3 1 20.4234 -3.99695 6.90294
42 3 1 21.0907 -5.40384 6.66741
43 3 3 20.9133 -5.96779 5.57219
44 3 3 22.1337 -5.76064 7.47335
40 3 1 21.2456 -2.82287 6.67217
51 3 2 22.3118 -2.90497 6.84362
52 3 2 23.0641 -5.57731 7.25134
37 3 1 18.4956 -2.47391 6.6813
38 3 1 19.3743 -1.35353 6.48951
39 3 1 20.6491 -1.50375 6.95777
48 3 2 17.5039 -2.35654 6.41544
49 3 2 18.9399 -0.370194 6.63546
50 3 2 21.2192 -0.560337 6.91515
55 4 3 5.15241 17.921 8.6903
11 2 1 -12.1923 -23.3389 12.176
12 2 1 -11.0292 -22.7671 11.3994
13 2 3 -10.7783 -23.4214 10.3842
14 2 3 -9.9167 -22.4663 12.2733
24 2 2 -13.0442 -23.4978 11.5588
25 2 2 -12.3799 -22.672 12.9413
26 2 2 -11.8761 -24.3014 12.6173
21 2 1 -7.4308 -22.9752 13.5438
22 2 3 -6.9726 -23.9412 12.868
23 2 3 -7.17869 -22.8889 14.9292
31 2 2 -6.35276 -22.4219 15.2406
27 2 2 -9.99916 -20.2281 10.7591
20 2 1 -7.80851 -21.6571 12.939
16 2 1 -9.18974 -20.3648 11.46
28 2 2 -8.48807 -18.4135 11.0121
15 2 1 -8.84286 -21.6488 11.9577
17 2 1 -8.22573 -19.3726 11.4285
18 2 1 -7.25557 -19.3742 12.3578
19 2 1 -6.84617 -20.6822 12.7918
29 2 2 -6.4889 -18.7425 12.124
30 2 2 -6.04687 -20.7075 13.4248
1 1 1 19.0001 7.15132 14.6747
2 1 1 19.8328 7.98958 15.1802
3 1 1 21.1585 8.12389 14.5733
7 1 2 18.0307 7.12855 15.1201
8 1 2 19.3996 8.70282 15.8416
5 1 4 21.3276 8.99575 13.4279
10 1 2 20.644 8.78936 12.696
4 1 3 22.0839 8.12636 15.3787
6 1 2 19.3266 6.4638 13.9234
9 1 2 21.6599 9.99138 13.5363
66 4 2 3.53421 17.1866 10.7653
69 4 2 5.90232 20.7277 9.63025
59 4 1 7.74103 21.6443 9.52589
68 4 2 4.92492 15.9985 10.7598
54 4 1 5.34889 18.041 9.94302
53 4 1 4.63246 17.1139 10.9325
56 4 3 6.66857 18.3127 10.3981
57 4 1 7.42561 19.4421 10.1301
58 4 1 6.85793 20.7314 10.0562
60 4 1 9.06947 21.6282 9.82855
62 4 1 8.77735 19.373 10.6369
67 4 2 4.79372 17.3134 11.9773
63 4 1 9.44513 18.0542 10.8446
61 4 1 9.60799 20.3041 10.0848
64 4 3 9.47101 17.2038 9.94015
65 4 3 10.5396 18.0002 11.7326
72 4 2 10.6008 20.3224 10.2178
73 4 2 10.4901 18.2786 12.7098
70 4 2 7.31279 22.5782 9.02818
71 4 2 9.7425 22.4291 9.41833
ITEM: TIMESTEP
3660
ITEM: NUMBER OF ATOMS
115
ITEM: BOX BOUNDS pp pp pp
-2.8628399999999999e+01 2.8628399999999999e+01
-2.8628399999999999e+01 2.8628399999999999e+01
-2.8628399999999999e+01 2.8628399999999999e+01
ITEM: ATOMS id mol type x y z
74 5 1 13.1887 -12.5672 -13.2718
75 5 1 13.7802 -11.1978 -13.1511
76 5 3 14.0414 -10.5938 -14.2301
77 5 3 14.6464 -11.0842 -12.0944
78 5 1 15.3852 -9.98665 -11.6631
87 5 2 12.3829 -12.5471 -14.0835
88 5 2 12.7167 -12.7883 -12.3896
89 5 2 13.8824 -13.3307 -13.5567
83 5 1 16.8172 -10.026 -11.3924
84 5 1 17.718 -11.1472 -11.8003
85 5 3 17.1148 -12.2256 -11.7801
86 5 3 18.9864 -11.3118 -11.1773
94 5 2 19.0357 -11.663 -10.2337
79 5 1 14.6125 -8.77495 -11.2313
80 5 1 15.3757 -7.60649 -11.0895
90 5 2 13.5336 -8.67384 -11.6037
91 5 2 14.8614 -6.63946 -10.8649
81 5 1 16.6476 -7.79875 -10.5901
82 5 1 17.4322 -8.74067 -11.2026
92 5 2 17.2671 -6.86624 -10.431
93 5 2 18.0043 -8.28827 -12.0417
97 6 3 17.2944 18.0319 -10.0608
95 6 1 15.9867 16.4902 -8.7682
108 6 2 15.4308 16.1736 -9.66366
109 6 2 15.2169 16.5163 -7.9124
110 6 2 16.8025 15.8164 -8.55537
96 6 1 16.5774 17.8422 -9.02528
98 6 3 17.2722 18.3651 -7.83544
99 6 1 18.1178 19.473 -7.68939
100 6 1 17.725 20.7296 -8.19239
101 6 1 18.5891 21.7942 -8.22471
102 6 1 19.4981 21.8213 -7.15244
103 6 1 19.9287 20.604 -6.53937
104 6 1 19.0649 19.4401 -6.61289
105 6 1 19.668 18.1819 -5.99482
106 6 3 18.8969 17.2401 -5.7087
107 6 3 20.8048 18.2223 -5.2537
111 6 2 16.697 20.8888 -8.51422
114 6 2 20.4552 20.7955 -5.67109
115 6 2 21.4588 17.4251 -5.12383
112 6 2 18.3979 22.7384 -8.76967
113 6 2 20.2657 22.6401 -7.24501
32 3 1 15.9162 -5.9608 6.71284
45 3 2 15.0031 -5.9421 6.16917
46 3 2 15.7639 -5.73301 7.75427
47 3 2 16.3236 -6.98413 6.73374
33 3 1 16.8714 -5.05328 6.00903
34 3 3 16.9325 -5.15457 4.80318
35 3 3 18.0862 -4.83476 6.64448
36 3 1 19.0073 -3.76664 6.47807
41 3 1 20.3212 -3.99428 6.96953
42 3 1 20.9242 -5.40832 6.69542
43 3 3 20.7932 -5.93986 5.55821
44 3 3 22.1215 -5.73243 7.50629
40 3 1 21.1632 -2.80714 6.73187
51 3 2 22.2103 -2.82556 6.96584
52 3 2 22.9853 -5.16778 7.34985
37 3 1 18.474 -2.39528 6.72893
38 3 1 19.3624 -1.26438 6.54005
39 3 1 20.6335 -1.52902 6.98108
48 3 2 17.4868 -2.23675 6.40153
49 3 2 18.9282 -0.325118 6.77086
50 3 2 21.2717 -0.678466 6.80788
55 4 3 5.19805 17.9433 8.82464
11 2 1 -12.2711 -23.3125 12.1671
12 2 1 -11.0814 -22.7095 11.4679
13 2 3 -10.7523 -23.3308 10.3896
14 2 3 -10.0085 -22.4574 12.2495
24 2 2 -13.1012 -23.3604 11.3972
25 2 2 -12.6365 -22.6693 12.9671
26 2 2 -12.0489 -24.3811 12.5439
21 2 1 -7.38038 -22.9599 13.6132
22 2 3 -6.85066 -23.8808 12.9202
23 2 3 -7.27762 -22.9031 14.9712
31 2 2 -6.58031 -22.3899 15.3509
27 2 2 -9.88594 -20.3987 10.6413
20 2 1 -7.83129 -21.6366 13.0012
16 2 1 -9.26441 -20.3972 11.5192
28 2 2 -8.53442 -18.5661 10.9635
15 2 1 -8.91424 -21.6494 11.9987
17 2 1 -8.18679 -19.4826 11.3434
18 2 1 -7.21276 -19.4387 12.4169
19 2 1 -6.74965 -20.7382 12.8175
29 2 2 -6.58401 -18.5546 12.6186
30 2 2 -6.01345 -20.6757 13.6618
1 1 1 18.9495 7.17634 14.6881
2 1 1 19.8542 8.0093 15.1441
3 1 1 21.2385 8.028 14.5902
7 1 2 17.9272 7.21887 15.0877
8 1 2 19.5892 8.77292 15.8569
5 1 4 21.2751 8.88694 13.5032
10 1 2 20.6513 8.61434 12.6322
4 1 3 22.13 8.06894 15.4722
6 1 2 19.1284 6.52389 13.8836
9 1 2 21.5127 9.87467 13.6592
66 4 2 3.50759 17.2218 10.8061
69 4 2 5.78954 20.6554 9.84326
59 4 1 7.62297 21.6262 9.50442
68 4 2 4.93706 16.1069 10.6681
54 4 1 5.41119 18.0335 10.0422
53 4 1 4.61569 17.1524 10.8828
56 4 3 6.6818 18.2402 10.4113
57 4 1 7.49432 19.3694 10.1526
58 4 1 6.85022 20.6764 10.09
60 4 1 8.98906 21.5645 9.81482
62 4 1 8.82998 19.3342 10.6834
67 4 2 4.88956 17.2834 11.9752
63 4 1 9.48562 18.0101 10.9006
61 4 1 9.6302 20.292 10.0582
64 4 3 9.5483 17.1745 9.99482
65 4 3 10.5168 18.0546 11.8312
72 4 2 10.6312 20.4517 10.5163
73 4 2 10.4873 18.7078 12.6358
70 4 2 7.20657 22.6195 9.57271
71 4 2 9.61192 22.261 9.34168
ITEM: TIMESTEP
3680
ITEM: NUMBER OF ATOMS
115
ITEM: BOX BOUNDS pp pp pp
-2.8628399999999999e+01 2.8628399999999999e+01
-2.8628399999999999e+01 2.8628399999999999e+01
-2.8628399999999999e+01 2.8628399999999999e+01
ITEM: ATOMS id mol type x y z
74 5 1 13.2141 -12.5455 -13.3437
75 5 1 13.6776 -11.1174 -13.1095
76 5 3 14.1057 -10.618 -14.1812
77 5 3 14.6644 -11.0308 -12.0802
78 5 1 15.4317 -9.91606 -11.8134
87 5 2 12.362 -12.6064 -14.007
88 5 2 12.7838 -12.9458 -12.4074
89 5 2 14.0554 -13.155 -13.8112
83 5 1 16.848 -10.0028 -11.3542
84 5 1 17.7974 -11.1183 -11.7697
85 5 3 17.2299 -12.2294 -11.8894
86 5 3 19.0172 -11.2135 -11.1282
94 5 2 19.1362 -11.7514 -10.279
79 5 1 14.7187 -8.83612 -11.2479
80 5 1 15.3863 -7.62875 -11.0615
90 5 2 13.6886 -8.77385 -11.4779
91 5 2 14.8969 -6.81764 -10.7011
81 5 1 16.6919 -7.68969 -10.6557
82 5 1 17.5406 -8.71501 -11.2228
92 5 2 17.1796 -6.82819 -10.1503
93 5 2 18.2605 -8.36121 -11.9468
97 6 3 17.2925 18.1019 -9.99117
95 6 1 16.0178 16.4718 -8.81273
108 6 2 15.5679 16.279 -9.87203
109 6 2 15.3021 16.4202 -8.07421
110 6 2 16.8563 15.7373 -8.6136
96 6 1 16.6911 17.8075 -8.92989
98 6 3 17.2075 18.3589 -7.77318
99 6 1 18.0956 19.4464 -7.75467
100 6 1 17.5994 20.7299 -8.26528
101 6 1 18.524 21.7857 -8.22537
102 6 1 19.455 21.7961 -7.14404
103 6 1 20.0106 20.5307 -6.70248
104 6 1 19.0069 19.5114 -6.61561
105 6 1 19.6456 18.257 -6.07069
106 6 3 18.865 17.3744 -5.68682
107 6 3 20.8901 18.2724 -5.35883
111 6 2 16.5999 20.8788 -8.66681
114 6 2 20.7299 20.7314 -5.87785
115 6 2 21.3764 17.4889 -5.14083
112 6 2 18.2949 22.8176 -8.56633
113 6 2 20.1599 22.637 -7.2204
32 3 1 16.0524 -5.93308 6.78288
45 3 2 14.9747 -5.90333 6.46499
46 3 2 16.0598 -5.55714 7.90021
47 3 2 16.4536 -6.97255 6.82641
33 3 1 16.9142 -4.98094 6.04105
34 3 3 16.9532 -5.23303 4.80769
35 3 3 18.0833 -4.78974 6.71317
36 3 1 18.9552 -3.72943 6.48974
41 3 1 20.2888 -3.9907 6.87985
42 3 1 20.8649 -5.29866 6.78988
43 3 3 20.844 -5.85972 5.71754
44 3 3 21.9779 -5.69999 7.46871
40 3 1 21.1814 -2.89696 6.67601
51 3 2 22.2268 -3.02742 6.84189
52 3 2 22.8717 -5.14772 7.36376
37 3 1 18.4475 -2.43472 6.72948
38 3 1 19.3132 -1.40859 6.57361
39 3 1 20.6756 -1.61968 6.93364
48 3 2 17.424 -2.24913 6.32253
49 3 2 18.8206 -0.405066 6.82327
50 3 2 21.3135 -0.741517 6.77251
55 4 3 5.18648 17.9459 8.81199
11 2 1 -12.2909 -23.2918 12.2495
12 2 1 -11.084 -22.7397 11.538
13 2 3 -10.7544 -23.2638 10.4031
14 2 3 -9.99527 -22.4197 12.2901
24 2 2 -13.1603 -23.4235 11.5682
25 2 2 -12.6696 -22.5448 13.0772
26 2 2 -12.0697 -24.2596 12.6569
21 2 1 -7.40362 -23.0189 13.6259
22 2 3 -6.79339 -23.8255 12.9303
23 2 3 -7.22651 -22.9307 15.0194
31 2 2 -6.43224 -22.4156 15.47
27 2 2 -9.97167 -20.3507 10.6052
20 2 1 -7.79289 -21.7493 12.9759
16 2 1 -9.23914 -20.4044 11.406
28 2 2 -8.3891 -18.6209 10.9392
15 2 1 -8.86443 -21.6587 11.9838
17 2 1 -8.17728 -19.5344 11.3842
18 2 1 -7.27318 -19.5371 12.4101
19 2 1 -6.78986 -20.7934 12.8361
29 2 2 -6.47243 -18.7835 12.3115
30 2 2 -5.99764 -20.7163 13.5493
1 1 1 18.8614 7.17681 14.7525
2 1 1 19.8197 7.96199 15.2315
3 1 1 21.1445 8.10252 14.599
7 1 2 17.858 7.12416 15.1413
8 1 2 19.6003 8.70084 16.0459
5 1 4 21.3692 8.95287 13.4406
10 1 2 20.8477 8.69411 12.6235
4 1 3 22.0774 8.01519 15.4411
6 1 2 19.0239 6.57027 13.8682
9 1 2 21.5131 9.93477 13.578
66 4 2 3.54998 17.1916 10.5925
69 4 2 5.74451 20.5528 9.62432
59 4 1 7.60011 21.6903 9.50766
68 4 2 4.68724 16.0367 11.1527
54 4 1 5.47279 17.8426 10.0874
53 4 1 4.56309 17.0519 11.0123
56 4 3 6.78131 18.1351 10.5682
57 4 1 7.41161 19.2998 10.1906
58 4 1 6.79855 20.6124 9.94114
60 4 1 8.97343 21.6237 9.69439
62 4 1 8.71177 19.3003 10.6503
67 4 2 4.50509 17.5247 12.0267
63 4 1 9.43679 17.9867 10.915
61 4 1 9.5256 20.4265 10.1632
64 4 3 9.50106 17.2216 9.9382
65 4 3 10.4856 18.0495 11.8802
72 4 2 10.6095 20.2664 10.0127
73 4 2 10.3353 18.496 12.7218
70 4 2 7.11526 22.6715 9.34361
71 4 2 9.65633 22.4894 9.61846
ITEM: TIMESTEP
3700
ITEM: NUMBER OF ATOMS
115
ITEM: BOX BOUNDS pp pp pp
-2.8628399999999999e+01 2.8628399999999999e+01
-2.8628399999999999e+01 2.8628399999999999e+01
-2.8628399999999999e+01 2.8628399999999999e+01
ITEM: ATOMS id mol type x y z
74 5 1 13.1972 -12.5804 -13.2996
75 5 1 13.7867 -11.2947 -13.1243
76 5 3 14.043 -10.5701 -14.1509
77 5 3 14.6694 -11.0842 -12.0728
78 5 1 15.487 -9.9209 -11.8308
87 5 2 12.35 -12.5677 -14.042
88 5 2 12.7113 -12.9299 -12.3717
89 5 2 13.9801 -13.2689 -13.6257
83 5 1 16.8257 -9.95879 -11.2767
84 5 1 17.7717 -11.1009 -11.7164
85 5 3 17.2712 -12.1933 -12.0209
86 5 3 19.047 -11.088 -11.1075
94 5 2 19.0456 -11.3507 -10.151
79 5 1 14.7837 -8.82606 -11.3077
80 5 1 15.3847 -7.61122 -11.0825
90 5 2 13.7261 -8.77044 -11.5389
91 5 2 14.7938 -6.89627 -10.4827
81 5 1 16.7182 -7.74279 -10.5882
82 5 1 17.5235 -8.79672 -11.1715
92 5 2 17.186 -6.84702 -10.1952
93 5 2 18.1014 -8.46478 -12.0252
97 6 3 17.2467 18.0321 -10.0004
95 6 1 15.9928 16.4929 -8.84881
108 6 2 15.3091 16.4068 -9.71491
109 6 2 15.3881 16.5271 -7.95953
110 6 2 16.7501 15.5914 -8.7661
96 6 1 16.6588 17.8157 -8.89946
98 6 3 17.1726 18.4008 -7.7511
99 6 1 18.0091 19.5247 -7.64507
100 6 1 17.5112 20.7331 -8.09623
101 6 1 18.4075 21.8121 -8.1493
102 6 1 19.4529 21.8064 -7.19754
103 6 1 19.9498 20.6074 -6.79233
104 6 1 19.0087 19.5485 -6.62516
105 6 1 19.5983 18.3043 -5.98016
106 6 3 18.8014 17.3968 -5.55801
107 6 3 20.8642 18.3255 -5.39321
111 6 2 17.0217 20.7072 -9.10418
114 6 2 20.7471 20.765 -6.05786
115 6 2 21.252 17.511 -5.00566
112 6 2 18.0783 22.796 -8.30497
113 6 2 20.0733 22.6503 -7.14359
32 3 1 16.0607 -5.86725 6.87663
45 3 2 15.073 -5.8663 6.50959
46 3 2 16.0573 -5.50721 7.91805
47 3 2 16.4414 -6.90031 6.91408
33 3 1 16.9542 -5.11214 6.09141
34 3 3 16.9574 -5.36859 4.84158
35 3 3 18.1098 -4.8018 6.78399
36 3 1 18.974 -3.76398 6.4669
41 3 1 20.3231 -3.94738 6.95769
42 3 1 20.8903 -5.3331 6.79101
43 3 3 20.8862 -5.87774 5.6491
44 3 3 22.0584 -5.66691 7.55351
40 3 1 21.197 -2.97414 6.60429
51 3 2 22.2195 -3.06072 6.91405
52 3 2 22.9536 -5.46217 7.13083
37 3 1 18.4486 -2.46626 6.66834
38 3 1 19.3567 -1.42347 6.56579
39 3 1 20.705 -1.71752 6.83403
48 3 2 17.4298 -2.28928 6.4487
49 3 2 18.9673 -0.453186 6.88283
50 3 2 21.3916 -0.865254 6.77319
55 4 3 5.20939 17.9393 8.90225
11 2 1 -12.2238 -23.3142 12.2597
12 2 1 -11.0328 -22.8488 11.519
13 2 3 -10.7646 -23.307 10.3712
14 2 3 -9.96307 -22.453 12.3542
24 2 2 -13.1778 -23.4281 11.6346
25 2 2 -12.4789 -22.5772 13.055
26 2 2 -11.9889 -24.334 12.6696
21 2 1 -7.3863 -22.9932 13.6205
22 2 3 -6.7127 -23.8654 13.0187
23 2 3 -7.12931 -22.898 15.0232
31 2 2 -6.31355 -22.4209 15.4382
27 2 2 -9.91182 -20.4462 10.6859
20 2 1 -7.86307 -21.7261 12.9465
16 2 1 -9.14793 -20.4226 11.3769
28 2 2 -8.37144 -18.5364 10.7121
15 2 1 -8.88515 -21.7128 11.9943
17 2 1 -8.12985 -19.4906 11.2651
18 2 1 -7.23263 -19.4805 12.3514
19 2 1 -6.83766 -20.7547 12.8125
29 2 2 -6.60591 -18.6248 12.4538
30 2 2 -6.11901 -20.6958 13.6566
1 1 1 18.8134 7.09914 14.7631
2 1 1 19.759 7.95267 15.2746
3 1 1 21.1273 8.19747 14.6618
7 1 2 17.8931 7.00703 15.2586
8 1 2 19.5686 8.41442 16.198
5 1 4 21.3894 8.98998 13.4537
10 1 2 21.1919 8.57629 12.5093
4 1 3 22.1488 8.04673 15.363
6 1 2 18.9193 6.4771 13.7882
9 1 2 21.431 10.1207 13.5783
66 4 2 3.51506 17.0606 10.7174
69 4 2 5.73044 20.5482 9.49826
59 4 1 7.54381 21.6708 9.50146
68 4 2 4.90036 15.9325 10.9647
54 4 1 5.4083 17.7729 10.1484
53 4 1 4.56383 16.9876 11.0252
56 4 3 6.65163 18.1399 10.5848
57 4 1 7.38918 19.2647 10.1986
58 4 1 6.77342 20.5997 9.8781
60 4 1 8.93299 21.6064 9.7003
62 4 1 8.72145 19.3593 10.6758
67 4 2 4.62452 17.3358 12.0917
63 4 1 9.41144 18.1177 10.9264
61 4 1 9.55672 20.4082 10.1317
64 4 3 9.4778 17.2339 10.058
65 4 3 10.3842 18.0013 11.8348
72 4 2 10.5005 20.2543 9.81742
73 4 2 10.3652 18.1173 12.8076
70 4 2 7.0871 22.5846 9.0709
71 4 2 9.52266 22.5585 9.38598
ITEM: TIMESTEP
3720
ITEM: NUMBER OF ATOMS
115
ITEM: BOX BOUNDS pp pp pp
-2.8628399999999999e+01 2.8628399999999999e+01
-2.8628399999999999e+01 2.8628399999999999e+01
-2.8628399999999999e+01 2.8628399999999999e+01
ITEM: ATOMS id mol type x y z
74 5 1 13.187 -12.6611 -13.2981
75 5 1 13.8506 -11.2667 -13.0569
76 5 3 14.0349 -10.6152 -14.1506
77 5 3 14.7619 -11.0871 -12.0014
78 5 1 15.4912 -9.92452 -11.7635
87 5 2 12.4011 -12.5774 -14.0758
88 5 2 12.6353 -12.9449 -12.3423
89 5 2 13.9148 -13.4947 -13.4901
83 5 1 16.8047 -10.0025 -11.2972
84 5 1 17.7812 -11.081 -11.777
85 5 3 17.3627 -12.1794 -12.1331
86 5 3 18.9744 -11.0685 -11.1001
94 5 2 19.1072 -11.3894 -10.1612
79 5 1 14.6974 -8.80428 -11.317
80 5 1 15.3963 -7.67401 -10.9702
90 5 2 13.7393 -8.57951 -11.8326
91 5 2 14.8701 -6.78825 -10.5286
81 5 1 16.6904 -7.78886 -10.4802
82 5 1 17.4 -8.72424 -11.2188
92 5 2 17.2304 -6.87097 -10.1121
93 5 2 18.0433 -8.36653 -11.982
97 6 3 17.2503 17.9543 -10.1139
95 6 1 15.9426 16.549 -8.7929
108 6 2 15.2096 16.3884 -9.55413
109 6 2 15.3564 16.6364 -7.83407
110 6 2 16.7003 15.7033 -8.69413
96 6 1 16.6142 17.8601 -8.99166
98 6 3 17.2237 18.4068 -7.80685
99 6 1 17.9887 19.5549 -7.57324
100 6 1 17.4441 20.7948 -8.03084
101 6 1 18.3224 21.8732 -8.11466
102 6 1 19.4821 21.9159 -7.29239
103 6 1 19.9213 20.6561 -6.69713
104 6 1 18.9332 19.5967 -6.49661
105 6 1 19.5681 18.324 -6.0369
106 6 3 18.805 17.4437 -5.49372
107 6 3 20.825 18.3883 -5.46454
111 6 2 16.6379 20.8769 -8.72757
114 6 2 20.7653 20.7688 -6.05337
115 6 2 21.3139 17.4893 -5.29693
112 6 2 17.9152 22.8107 -8.44625
113 6 2 20.2371 22.6068 -7.62324
32 3 1 15.9949 -5.86161 7.01226
45 3 2 14.9601 -5.77266 6.57463
46 3 2 15.9515 -5.42392 8.09755
47 3 2 16.2662 -6.94093 7.0257
33 3 1 16.951 -5.14827 6.11131
34 3 3 16.9554 -5.40363 4.83512
35 3 3 18.1702 -4.78264 6.72424
36 3 1 19.0328 -3.78785 6.49351
41 3 1 20.384 -4.01536 6.87929
42 3 1 20.9411 -5.40647 6.78422
43 3 3 20.7744 -5.91528 5.63561
44 3 3 22.1588 -5.7172 7.50891
40 3 1 21.2332 -2.95115 6.57031
51 3 2 22.2147 -3.06837 6.81133
52 3 2 23.0892 -5.44179 7.17325
37 3 1 18.546 -2.43629 6.67256
38 3 1 19.427 -1.38046 6.54502
39 3 1 20.7527 -1.56805 6.78507
48 3 2 17.5281 -2.20785 6.25236
49 3 2 19.0343 -0.441501 6.89527
50 3 2 21.2988 -0.696824 6.50982
55 4 3 5.2262 17.8948 8.93571
11 2 1 -12.2293 -23.4619 12.2716
12 2 1 -11.023 -22.8499 11.4668
13 2 3 -10.8213 -23.4793 10.4075
14 2 3 -9.92311 -22.526 12.2821
24 2 2 -13.1053 -23.5061 11.6144
25 2 2 -12.4988 -22.8056 13.0793
26 2 2 -11.9459 -24.4957 12.7012
21 2 1 -7.36655 -22.9587 13.6373
22 2 3 -6.68878 -23.8443 13.0505
23 2 3 -7.13294 -22.9116 14.9238
31 2 2 -6.32338 -22.4857 15.3464
27 2 2 -9.78041 -20.6004 10.4862
20 2 1 -7.79292 -21.641 13.0487
16 2 1 -9.14939 -20.4753 11.3791
28 2 2 -8.50861 -18.5774 10.8895
15 2 1 -8.80091 -21.7154 11.98
17 2 1 -8.11894 -19.4769 11.274
18 2 1 -7.23794 -19.4336 12.3588
19 2 1 -6.77969 -20.6362 12.8857
29 2 2 -6.43809 -18.7354 12.2031
30 2 2 -6.11556 -20.4049 13.6776
1 1 1 18.8675 7.10407 14.689
2 1 1 19.7587 7.94745 15.2698
3 1 1 21.0804 8.26466 14.7394
7 1 2 17.8407 7.02349 15.1996
8 1 2 19.4539 8.54548 16.1906
5 1 4 21.2235 9.02016 13.4499
10 1 2 21.6095 8.3843 12.648
4 1 3 22.1691 8.01765 15.3321
6 1 2 18.9716 6.6126 13.732
9 1 2 21.4667 9.98833 13.4329
66 4 2 3.57806 16.7018 10.818
69 4 2 5.65104 20.4771 9.64399
59 4 1 7.50017 21.5162 9.37192
68 4 2 5.12657 15.8443 10.7672
54 4 1 5.32468 17.9385 10.1998
53 4 1 4.66062 16.8664 11.011
56 4 3 6.65078 18.3167 10.6708
57 4 1 7.40087 19.356 10.1793
58 4 1 6.7323 20.5681 9.93767
60 4 1 8.90442 21.6597 9.6913
62 4 1 8.76303 19.441 10.6246
67 4 2 4.70825 17.1265 12.0686
63 4 1 9.45921 18.083 10.8989
61 4 1 9.54334 20.499 10.0942
64 4 3 9.45807 17.2297 9.96246
65 4 3 10.3745 17.9339 11.8926
72 4 2 10.4214 20.2282 9.45765
73 4 2 10.2607 18.4361 12.8263
70 4 2 7.10579 22.4233 9.43638
71 4 2 9.34952 22.5056 9.2596
ITEM: TIMESTEP
3740
ITEM: NUMBER OF ATOMS
115
ITEM: BOX BOUNDS pp pp pp
-2.8628399999999999e+01 2.8628399999999999e+01
-2.8628399999999999e+01 2.8628399999999999e+01
-2.8628399999999999e+01 2.8628399999999999e+01
ITEM: ATOMS id mol type x y z
74 5 1 13.183 -12.6336 -13.3494
75 5 1 13.741 -11.2639 -13.0357
76 5 3 14.0824 -10.7518 -14.1292
77 5 3 14.675 -11.119 -12.07
78 5 1 15.462 -9.92544 -11.855
87 5 2 12.3159 -12.5445 -14.0637
88 5 2 12.8764 -13.1434 -12.4936
89 5 2 13.9567 -13.2882 -13.7546
83 5 1 16.8554 -10.0151 -11.3173
84 5 1 17.8233 -11.0245 -11.8153
85 5 3 17.5078 -12.2045 -12.1669
86 5 3 19.0213 -11.0194 -11.0532
94 5 2 19.0551 -11.407 -10.064
79 5 1 14.6703 -8.82094 -11.3385
80 5 1 15.2904 -7.63566 -10.9152
90 5 2 13.6604 -8.72844 -11.7626
91 5 2 14.7077 -6.95366 -10.3099
81 5 1 16.5835 -7.81263 -10.3863
82 5 1 17.48 -8.6739 -11.1526
92 5 2 17.012 -6.90363 -9.87995
93 5 2 17.9168 -8.23847 -12.0363
97 6 3 17.3434 17.9918 -10.0617
95 6 1 15.8484 16.6261 -8.76287
108 6 2 15.2768 16.3962 -9.67005
109 6 2 15.0941 16.8055 -7.98871
110 6 2 16.4351 15.7421 -8.54099
96 6 1 16.6927 17.8754 -8.97908
98 6 3 17.2637 18.4006 -7.83253
99 6 1 17.9752 19.6406 -7.60799
100 6 1 17.3768 20.8687 -7.89532
101 6 1 18.3115 21.9044 -8.16393
102 6 1 19.4275 21.8969 -7.32031
103 6 1 19.8378 20.7382 -6.70628
104 6 1 18.8813 19.6805 -6.54775
105 6 1 19.4763 18.3775 -5.97588
106 6 3 18.7496 17.4741 -5.44824
107 6 3 20.834 18.3237 -5.51563
111 6 2 16.5667 20.9547 -8.61877
114 6 2 20.6014 20.9334 -5.91411
115 6 2 21.3166 17.4642 -5.36773
112 6 2 17.9423 22.7923 -8.55639
113 6 2 20.213 22.5861 -7.55675
32 3 1 15.9737 -5.86643 7.02377
45 3 2 14.9658 -5.94075 6.50614
46 3 2 15.8666 -5.36789 7.98033
47 3 2 16.4174 -6.84624 7.12835
33 3 1 16.8823 -5.13172 6.13345
34 3 3 16.8939 -5.45792 4.92291
35 3 3 18.1604 -4.80053 6.6611
36 3 1 19.1141 -3.70405 6.51801
41 3 1 20.5015 -3.92428 6.93084
42 3 1 20.9181 -5.33344 6.74897
43 3 3 20.6977 -5.97842 5.67636
44 3 3 22.0472 -5.75361 7.47623
40 3 1 21.3065 -2.83916 6.5589
51 3 2 22.4371 -2.85195 6.67417
52 3 2 22.9542 -5.33096 7.40728
37 3 1 18.5732 -2.37372 6.76623
38 3 1 19.4303 -1.29178 6.48047
39 3 1 20.7555 -1.58931 6.76949
48 3 2 17.5342 -2.18867 6.47056
49 3 2 19.1576 -0.261077 6.73872
50 3 2 21.3964 -0.747183 6.48296
55 4 3 5.21645 17.9577 9.02202
11 2 1 -12.116 -23.4695 12.2204
12 2 1 -10.9672 -22.9756 11.4903
13 2 3 -10.7994 -23.5077 10.3916
14 2 3 -9.80845 -22.6023 12.2005
24 2 2 -12.9851 -23.5617 11.4841
25 2 2 -12.4106 -22.7735 13.043
26 2 2 -11.8028 -24.5064 12.6345
21 2 1 -7.3321 -22.9313 13.6508
22 2 3 -6.76329 -23.7884 12.9517
23 2 3 -7.02411 -22.934 15.0851
31 2 2 -6.09244 -22.6885 15.4514
27 2 2 -9.87957 -20.4075 10.6167
20 2 1 -7.81812 -21.6464 13.0276
16 2 1 -9.0932 -20.4468 11.3816
28 2 2 -8.52776 -18.6059 10.8185
15 2 1 -8.76685 -21.6996 11.9469
17 2 1 -8.12184 -19.4622 11.2846
18 2 1 -7.18298 -19.3654 12.3183
19 2 1 -6.84839 -20.5533 12.9471
29 2 2 -6.40202 -18.6283 12.345
30 2 2 -6.03884 -20.5017 13.6617
1 1 1 18.815 7.09391 14.6987
2 1 1 19.7476 7.91516 15.2609
3 1 1 21.0383 8.21502 14.6464
7 1 2 17.945 6.82282 15.2937
8 1 2 19.5399 8.42406 16.2128
5 1 4 21.1764 9.00312 13.5109
10 1 2 21.7033 8.60427 12.7208
4 1 3 22.0849 8.01405 15.2858
6 1 2 18.875 6.78411 13.6831
9 1 2 21.0535 9.98926 13.6057
66 4 2 3.75011 16.6806 10.637
69 4 2 5.74249 20.5224 9.72531
59 4 1 7.49465 21.6064 9.28798
68 4 2 5.32571 15.9762 10.911
54 4 1 5.35431 17.9689 10.2921
53 4 1 4.72197 16.8928 11.0167
56 4 3 6.6351 18.2996 10.7001
57 4 1 7.4452 19.3806 10.2165
58 4 1 6.7813 20.623 9.96619
60 4 1 8.86579 21.6752 9.77042
62 4 1 8.82427 19.4293 10.626
67 4 2 4.6221 17.1491 12.1082
63 4 1 9.50423 18.0716 10.8532
61 4 1 9.52306 20.4402 9.96383
64 4 3 9.50949 17.3097 9.84576
65 4 3 10.3643 17.9664 11.9462
72 4 2 10.1616 20.1024 9.15097
73 4 2 10.2298 18.3972 12.8429
70 4 2 7.0128 22.4954 8.87635
71 4 2 9.38759 22.4705 9.23795
ITEM: TIMESTEP
3760
ITEM: NUMBER OF ATOMS
115
ITEM: BOX BOUNDS pp pp pp
-2.8628399999999999e+01 2.8628399999999999e+01
-2.8628399999999999e+01 2.8628399999999999e+01
-2.8628399999999999e+01 2.8628399999999999e+01
ITEM: ATOMS id mol type x y z
74 5 1 13.1027 -12.5963 -13.3035
75 5 1 13.7016 -11.2407 -13.0945
76 5 3 14.027 -10.6491 -14.1534
77 5 3 14.7135 -11.0897 -12.0532
78 5 1 15.4267 -9.88704 -11.8582
87 5 2 12.0795 -12.4931 -13.8257
88 5 2 12.941 -13.0702 -12.3324
89 5 2 13.8063 -13.3009 -13.8129
83 5 1 16.8228 -9.93756 -11.3273
84 5 1 17.8844 -10.962 -11.7254
85 5 3 17.4307 -12.1213 -11.9969
86 5 3 19.0491 -11.0744 -10.9071
94 5 2 18.9142 -11.2781 -10.021
79 5 1 14.5942 -8.83587 -11.3344
80 5 1 15.1985 -7.71275 -10.7862
90 5 2 13.6372 -8.74666 -11.7796
91 5 2 14.5653 -7.01975 -10.2128
81 5 1 16.5374 -7.78625 -10.3539
82 5 1 17.316 -8.63925 -11.0259
92 5 2 17.0178 -6.8495 -10.0409
93 5 2 18.0095 -8.19827 -11.7749
97 6 3 17.4708 17.8821 -10.0536
95 6 1 15.8885 16.7317 -8.86381
108 6 2 15.4436 16.2889 -9.79547
109 6 2 15.1261 16.8792 -8.08906
110 6 2 16.5839 15.9774 -8.45227
96 6 1 16.6783 17.9366 -9.03331
98 6 3 17.1865 18.4852 -7.79936
99 6 1 17.909 19.6809 -7.62286
100 6 1 17.3219 20.9319 -7.97215
101 6 1 18.3669 21.9125 -8.20122
102 6 1 19.4779 21.9287 -7.35916
103 6 1 19.8313 20.733 -6.64968
104 6 1 18.9303 19.5982 -6.60095
105 6 1 19.4684 18.351 -5.97348
106 6 3 18.6917 17.5253 -5.37301
107 6 3 20.8207 18.3734 -5.55812
111 6 2 16.4813 21.0953 -8.65595
114 6 2 20.4801 20.9069 -5.84555
115 6 2 21.3316 17.5784 -5.55148
112 6 2 17.9546 22.9322 -8.49968
113 6 2 20.3273 22.4903 -7.63036
32 3 1 16.0067 -5.81639 7.02307
45 3 2 15.0726 -6.09562 6.57999
46 3 2 15.8535 -5.19112 7.92949
47 3 2 16.4759 -6.69652 7.37484
33 3 1 16.9215 -5.06697 6.09605
34 3 3 16.8304 -5.38846 4.88171
35 3 3 18.1403 -4.80644 6.70835
36 3 1 19.0343 -3.71859 6.57716
41 3 1 20.3553 -3.99839 6.93343
42 3 1 20.8786 -5.34592 6.80885
43 3 3 20.7039 -5.92412 5.72654
44 3 3 22.0224 -5.79504 7.48942
40 3 1 21.2941 -2.90461 6.55551
51 3 2 22.3194 -3.01745 6.78163
52 3 2 22.9018 -5.73034 7.05847
37 3 1 18.5511 -2.43882 6.82009
38 3 1 19.4016 -1.37301 6.48246
39 3 1 20.8108 -1.58318 6.79175
48 3 2 17.4878 -2.34738 6.68622
49 3 2 19.0632 -0.365476 6.71706
50 3 2 21.4444 -0.77028 6.55434
55 4 3 5.23547 17.8496 9.07641
11 2 1 -12.0711 -23.5071 12.2261
12 2 1 -10.9153 -22.9784 11.4381
13 2 3 -10.7474 -23.5607 10.3129
14 2 3 -9.74232 -22.6348 12.2405
24 2 2 -12.9904 -23.5058 11.5954
25 2 2 -12.2747 -22.8936 13.1059
26 2 2 -11.8636 -24.4966 12.6025
21 2 1 -7.30391 -22.8719 13.6584
22 2 3 -6.7863 -23.6991 12.9142
23 2 3 -7.09175 -22.9644 15.0424
31 2 2 -6.39313 -22.3552 15.4702
27 2 2 -9.8376 -20.2837 10.6478
20 2 1 -7.81927 -21.6044 13.0574
16 2 1 -9.13705 -20.3276 11.4521
28 2 2 -8.29643 -18.4801 10.6868
15 2 1 -8.72024 -21.6687 11.9866
17 2 1 -8.0797 -19.4145 11.277
18 2 1 -7.16336 -19.3836 12.2534
19 2 1 -6.77996 -20.6548 12.826
29 2 2 -6.37447 -18.65 12.3124
30 2 2 -6.09148 -20.571 13.6255
1 1 1 18.8287 7.13718 14.6965
2 1 1 19.7455 7.89182 15.2676
3 1 1 21.0496 8.20578 14.6362
7 1 2 17.8324 7.0157 15.0889
8 1 2 19.3256 8.57543 16.0672
5 1 4 21.1252 9.06048 13.4545
10 1 2 21.4415 8.74871 12.5367
4 1 3 22.0471 8.09308 15.4442
6 1 2 19.0944 6.5306 13.8391
9 1 2 20.5417 9.99604 13.4532
66 4 2 3.63893 16.834 10.7762
69 4 2 5.83422 20.6169 9.52446
59 4 1 7.59217 21.5618 9.28472
68 4 2 5.21824 15.9153 10.8622
54 4 1 5.44036 17.9321 10.3336
53 4 1 4.75148 16.8872 11.105
56 4 3 6.68791 18.343 10.7094
57 4 1 7.39958 19.3983 10.214
58 4 1 6.76282 20.6588 9.92579
60 4 1 8.85035 21.6462 9.78585
62 4 1 8.77078 19.4719 10.5653
67 4 2 4.7235 17.0245 12.2253
63 4 1 9.51306 18.1621 10.8094
61 4 1 9.5425 20.4317 9.84687
64 4 3 9.63133 17.3591 9.84639
65 4 3 10.3401 17.938 11.8679
72 4 2 10.0124 20.1643 8.95161
73 4 2 10.0467 17.9925 12.8265
70 4 2 7.1875 22.6233 9.08609
71 4 2 9.35838 22.6153 9.64689
ITEM: TIMESTEP
3780
ITEM: NUMBER OF ATOMS
115
ITEM: BOX BOUNDS pp pp pp
-2.8628399999999999e+01 2.8628399999999999e+01
-2.8628399999999999e+01 2.8628399999999999e+01
-2.8628399999999999e+01 2.8628399999999999e+01
ITEM: ATOMS id mol type x y z
74 5 1 13.0493 -12.5535 -13.2437
75 5 1 13.7454 -11.2343 -13.1387
76 5 3 13.9376 -10.5849 -14.1522
77 5 3 14.7589 -11.0969 -12.1193
78 5 1 15.4855 -9.91041 -11.8315
87 5 2 12.1699 -12.4607 -13.8569
88 5 2 12.7752 -12.9335 -12.1712
89 5 2 13.6898 -13.3216 -13.6515
83 5 1 16.8339 -9.88137 -11.1972
84 5 1 17.8641 -10.9107 -11.5971
85 5 3 17.4433 -12.056 -11.9239
86 5 3 18.983 -11.0265 -10.898
94 5 2 19.0161 -11.4324 -9.94188
79 5 1 14.6487 -8.84138 -11.3762
80 5 1 15.1741 -7.6496 -10.8154
90 5 2 13.5724 -8.76774 -11.6007
91 5 2 14.4832 -7.16651 -10.1684
81 5 1 16.51 -7.78888 -10.2583
82 5 1 17.3861 -8.58366 -11.0462
92 5 2 16.8298 -6.9383 -9.75666
93 5 2 17.684 -8.15045 -11.9731
97 6 3 17.5092 17.9201 -9.99165
95 6 1 15.949 16.7663 -8.81828
108 6 2 15.5961 16.3793 -9.86018
109 6 2 15.1105 16.8347 -8.11086
110 6 2 16.6662 15.9457 -8.39932
96 6 1 16.6873 17.9693 -9.04579
98 6 3 17.0457 18.5342 -7.79654
99 6 1 17.8665 19.691 -7.60382
100 6 1 17.4098 20.9284 -8.0477
101 6 1 18.4201 21.9097 -8.24831
102 6 1 19.4656 21.9192 -7.37221
103 6 1 19.8214 20.6921 -6.74733
104 6 1 18.9345 19.6875 -6.55866
105 6 1 19.4732 18.4269 -5.98884
106 6 3 18.7114 17.656 -5.3104
107 6 3 20.7875 18.3159 -5.59274
111 6 2 16.7672 21.015 -8.96146
114 6 2 20.6049 20.7491 -5.99327
115 6 2 21.1596 17.3969 -5.25916
112 6 2 18.0794 22.85 -8.66458
113 6 2 20.1932 22.5975 -7.57951
32 3 1 15.9743 -5.77146 7.14358
45 3 2 14.8945 -5.89778 6.84618
46 3 2 15.952 -5.11695 8.06803
47 3 2 16.3574 -6.76768 7.54606
33 3 1 16.8952 -5.07869 6.15323
34 3 3 16.8934 -5.35088 4.92856
35 3 3 18.0644 -4.80855 6.74658
36 3 1 19.0265 -3.78533 6.57205
41 3 1 20.411 -3.96 6.92631
42 3 1 20.905 -5.36442 6.8322
43 3 3 20.7173 -5.91047 5.69447
44 3 3 22.0483 -5.8208 7.51668
40 3 1 21.3068 -2.88308 6.54924
51 3 2 22.3998 -3.035 6.61986
52 3 2 22.8695 -5.97482 6.90079
37 3 1 18.6009 -2.46384 6.87369
38 3 1 19.4229 -1.3963 6.52279
39 3 1 20.7691 -1.58193 6.77163
48 3 2 17.5929 -2.31476 6.59278
49 3 2 19.0358 -0.326061 6.75353
50 3 2 21.3842 -0.767411 6.49624
55 4 3 5.32198 17.8622 9.05178
11 2 1 -11.9553 -23.4716 12.2391
12 2 1 -10.8764 -22.911 11.4387
13 2 3 -10.7042 -23.4457 10.3269
14 2 3 -9.86296 -22.5081 12.2163
24 2 2 -12.896 -23.44 11.6637
25 2 2 -12.1236 -22.9134 13.1418
26 2 2 -11.8078 -24.5316 12.557
21 2 1 -7.39264 -22.9116 13.6288
22 2 3 -6.67475 -23.7193 12.9361
23 2 3 -7.15142 -22.9319 14.9795
31 2 2 -6.48894 -22.3034 15.3715
27 2 2 -9.85568 -20.2644 10.539
20 2 1 -7.80792 -21.6015 12.9884
16 2 1 -9.14045 -20.304 11.4238
28 2 2 -8.38107 -18.4865 10.8908
15 2 1 -8.89116 -21.5945 12.0315
17 2 1 -8.04067 -19.3782 11.2943
18 2 1 -7.09585 -19.3355 12.2695
19 2 1 -6.79256 -20.6094 12.8931
29 2 2 -6.21329 -18.724 12.1686
30 2 2 -6.06489 -20.7281 13.7295
1 1 1 18.8388 7.10493 14.6862
2 1 1 19.665 7.9398 15.2742
3 1 1 21.0157 8.26693 14.777
7 1 2 17.8255 6.93247 15.0991
8 1 2 19.2532 8.40826 16.1777
5 1 4 21.0357 9.07147 13.6058
10 1 2 21.224 8.74376 12.6526
4 1 3 22.0715 8.09358 15.4735
6 1 2 19.1577 6.56109 13.8078
9 1 2 20.6805 10.0405 13.6731
66 4 2 3.69293 16.7703 10.8243
69 4 2 5.67877 20.6936 9.80342
59 4 1 7.50688 21.6676 9.30744
68 4 2 5.31765 15.9269 10.9814
54 4 1 5.40864 18.0068 10.3013
53 4 1 4.8173 16.9157 11.1073
56 4 3 6.63658 18.4391 10.8029
57 4 1 7.41504 19.3902 10.1559
58 4 1 6.74563 20.6556 9.92896
60 4 1 8.86235 21.7032 9.81618
62 4 1 8.84913 19.4481 10.5215
67 4 2 4.89767 17.1709 12.2289
63 4 1 9.54624 18.1862 10.7588
61 4 1 9.47583 20.4101 9.75681
64 4 3 9.71476 17.2979 9.90565
65 4 3 10.3521 17.9806 11.8382
72 4 2 9.79221 20.1104 8.73123
73 4 2 9.93017 18.0448 12.7077
70 4 2 7.02423 22.52 9.20365
71 4 2 9.43723 22.523 9.42736
ITEM: TIMESTEP
3800
ITEM: NUMBER OF ATOMS
115
ITEM: BOX BOUNDS pp pp pp
-2.8628399999999999e+01 2.8628399999999999e+01
-2.8628399999999999e+01 2.8628399999999999e+01
-2.8628399999999999e+01 2.8628399999999999e+01
ITEM: ATOMS id mol type x y z
74 5 1 13.1033 -12.5057 -13.188
75 5 1 13.8504 -11.1844 -13.1277
76 5 3 13.8999 -10.5769 -14.234
77 5 3 14.8836 -11.0965 -12.0844
78 5 1 15.5378 -9.88967 -11.7733
87 5 2 12.3582 -12.4546 -14.0567
88 5 2 12.5939 -12.8406 -12.2737
89 5 2 13.8043 -13.2995 -13.5587
83 5 1 16.8559 -9.86633 -11.2453
84 5 1 17.8574 -10.9253 -11.6655
85 5 3 17.4817 -12.0584 -12.0986
86 5 3 19.0739 -10.9443 -10.8816
94 5 2 19.1084 -11.4277 -9.88537
79 5 1 14.6885 -8.88103 -11.2499
80 5 1 15.2405 -7.71601 -10.7325
90 5 2 13.8057 -8.59961 -11.8187
91 5 2 14.6246 -6.88786 -10.4003
81 5 1 16.5263 -7.79578 -10.2607
82 5 1 17.3339 -8.5784 -11.1089
92 5 2 16.9097 -6.83174 -9.90013
93 5 2 17.7458 -8.0944 -11.9621
97 6 3 17.5575 17.8803 -9.84993
95 6 1 15.8329 16.7414 -8.79414
108 6 2 15.393 16.2912 -9.65531
109 6 2 15.0444 16.9397 -8.10302
110 6 2 16.4448 15.9127 -8.33353
96 6 1 16.6393 17.9709 -9.00072
98 6 3 17.1111 18.564 -7.7466
99 6 1 17.9081 19.6789 -7.63713
100 6 1 17.4706 20.8987 -8.11982
101 6 1 18.4746 21.9041 -8.26255
102 6 1 19.4068 21.9758 -7.2041
103 6 1 19.9247 20.7066 -6.88744
104 6 1 18.9344 19.6596 -6.59066
105 6 1 19.4884 18.398 -6.01513
106 6 3 18.6455 17.6763 -5.40931
107 6 3 20.8328 18.3361 -5.52042
111 6 2 16.7192 20.9009 -8.95735
114 6 2 20.816 20.6714 -6.23935
115 6 2 21.226 17.5046 -5.14555
112 6 2 18.1674 22.808 -8.69087
113 6 2 20.1917 22.825 -7.28956
32 3 1 15.941 -5.81892 7.08677
45 3 2 14.9331 -5.92491 6.63243
46 3 2 15.8547 -5.54117 8.09812
47 3 2 16.4876 -6.78098 7.06547
33 3 1 16.8267 -5.03649 6.2356
34 3 3 16.8058 -5.35781 5.02937
35 3 3 18.1198 -4.81903 6.91956
36 3 1 18.9795 -3.77674 6.58327
41 3 1 20.3475 -3.96463 7.02287
42 3 1 20.8508 -5.38153 6.81196
43 3 3 20.7402 -5.90662 5.67641
44 3 3 22.0319 -5.74172 7.43499
40 3 1 21.2007 -2.98077 6.48481
51 3 2 22.2739 -3.10044 6.71676
52 3 2 22.9567 -5.59943 6.99164
37 3 1 18.4627 -2.42631 6.70148
38 3 1 19.4509 -1.40442 6.64457
39 3 1 20.8124 -1.6631 6.69384
48 3 2 17.3998 -2.21051 6.47161
49 3 2 19.1879 -0.400182 6.88081
50 3 2 21.5108 -0.872677 6.34967
55 4 3 5.2199 17.8586 8.9907
11 2 1 -12.0746 -23.4429 12.2434
12 2 1 -10.9214 -22.7908 11.4507
13 2 3 -10.6168 -23.3694 10.3824
14 2 3 -9.87203 -22.4233 12.2734
24 2 2 -13.0097 -23.5719 11.6143
25 2 2 -12.2262 -22.9368 13.2189
26 2 2 -11.7004 -24.4862 12.4855
21 2 1 -7.41316 -22.9039 13.5911
22 2 3 -6.64683 -23.6781 12.8728
23 2 3 -7.16685 -22.9421 14.9252
31 2 2 -6.51718 -22.3064 15.4195
27 2 2 -9.94721 -20.1912 10.6676
20 2 1 -7.83209 -21.5197 13.0628
16 2 1 -9.17189 -20.2585 11.4493
28 2 2 -8.28312 -18.4907 10.7027
15 2 1 -8.78148 -21.5646 11.9463
17 2 1 -8.05854 -19.384 11.2924
18 2 1 -7.15272 -19.3883 12.3112
19 2 1 -6.72211 -20.6093 12.8373
29 2 2 -6.33488 -18.6905 12.2797
30 2 2 -6.01748 -20.6051 13.7241
1 1 1 18.8819 7.10769 14.7096
2 1 1 19.6669 7.9071 15.3639
3 1 1 20.949 8.28312 14.8796
7 1 2 17.8323 7.01758 15.0209
8 1 2 19.2736 8.45688 16.2573
5 1 4 20.9901 9.07961 13.6694
10 1 2 21.4686 8.6803 12.8587
4 1 3 22.0327 8.0522 15.474
6 1 2 19.2733 6.54719 13.8246
9 1 2 20.9189 10.1341 13.6602
66 4 2 3.77142 16.7493 10.9122
69 4 2 5.72014 20.6597 9.75126
59 4 1 7.47865 21.6799 9.28804
68 4 2 5.32571 15.9479 10.8992
54 4 1 5.36876 17.9706 10.2592
53 4 1 4.80129 16.9063 11.1363
56 4 3 6.56363 18.4469 10.7053
57 4 1 7.41943 19.4319 10.1187
58 4 1 6.82154 20.6916 9.96969
60 4 1 8.84569 21.7476 9.67246
62 4 1 8.81605 19.4493 10.5015
67 4 2 4.8408 17.0677 12.2465
63 4 1 9.55198 18.1638 10.7846
61 4 1 9.49996 20.4816 9.72803
64 4 3 9.71667 17.2176 9.93981
65 4 3 10.4153 18.0884 11.8705
72 4 2 9.94249 20.182 8.76146
73 4 2 10.118 18.351 12.7766
70 4 2 6.87782 22.6087 9.14967
71 4 2 9.2686 22.6102 9.2069
ITEM: TIMESTEP
3820
ITEM: NUMBER OF ATOMS
115
ITEM: BOX BOUNDS pp pp pp
-2.8628399999999999e+01 2.8628399999999999e+01
-2.8628399999999999e+01 2.8628399999999999e+01
-2.8628399999999999e+01 2.8628399999999999e+01
ITEM: ATOMS id mol type x y z
74 5 1 13.1474 -12.4285 -13.0916
75 5 1 13.8338 -11.1614 -13.0832
76 5 3 14.0378 -10.6584 -14.1998
77 5 3 14.8498 -11.0615 -12.2092
78 5 1 15.5098 -9.85827 -11.8103
87 5 2 12.2236 -12.5272 -13.7819
88 5 2 12.7419 -12.623 -12.0971
89 5 2 13.8037 -13.2518 -13.4752
83 5 1 16.8619 -9.90397 -11.327
84 5 1 17.9416 -10.9148 -11.6997
85 5 3 17.5631 -11.9994 -12.1559
86 5 3 19.0425 -10.9529 -10.8381
94 5 2 18.9434 -11.3405 -9.9797
79 5 1 14.6932 -8.87579 -11.2262
80 5 1 15.2714 -7.67405 -10.7866
90 5 2 13.6363 -8.88597 -11.4313
91 5 2 14.6594 -7.0039 -10.1199
81 5 1 16.6035 -7.78154 -10.3155
82 5 1 17.4302 -8.64325 -10.9792
92 5 2 17.0536 -6.832 -9.97478
93 5 2 17.9844 -8.15109 -11.7177
97 6 3 17.5162 17.8676 -9.77266
95 6 1 15.665 16.7148 -8.88772
108 6 2 15.2552 16.607 -9.88274
109 6 2 14.767 16.832 -8.19913
110 6 2 16.1477 15.8656 -8.56248
96 6 1 16.6019 17.9244 -8.91491
98 6 3 17.1101 18.5354 -7.73747
99 6 1 18.0104 19.5825 -7.67018
100 6 1 17.5394 20.9177 -8.15048
101 6 1 18.4826 21.9116 -8.24432
102 6 1 19.4437 21.9384 -7.16593
103 6 1 19.9846 20.7573 -6.75564
104 6 1 19.0336 19.6603 -6.65821
105 6 1 19.5224 18.3817 -6.00419
106 6 3 18.6991 17.6157 -5.48217
107 6 3 20.7843 18.3955 -5.42314
111 6 2 16.8802 20.9528 -8.99363
114 6 2 20.7618 20.8115 -5.9436
115 6 2 21.2413 17.5635 -5.13524
112 6 2 18.2119 22.8823 -8.67413
113 6 2 20.0498 22.8509 -7.18699
32 3 1 15.8318 -5.8707 7.07389
45 3 2 14.8367 -5.67707 6.53395
46 3 2 15.6689 -5.54621 8.17992
47 3 2 16.0694 -6.89016 7.01833
33 3 1 16.8172 -5.01346 6.31615
34 3 3 16.7766 -5.3196 5.12186
35 3 3 18.0345 -4.71329 6.92344
36 3 1 18.9037 -3.71917 6.5222
41 3 1 20.2716 -4.04552 6.86757
42 3 1 20.8073 -5.43684 6.85708
43 3 3 20.8415 -5.92459 5.72655
44 3 3 21.9801 -5.83034 7.56808
40 3 1 21.2167 -3.0511 6.49991
51 3 2 22.2658 -3.24212 6.63719
52 3 2 22.8421 -5.302 7.72507
37 3 1 18.5226 -2.38565 6.65594
38 3 1 19.4573 -1.39629 6.53251
39 3 1 20.8311 -1.68866 6.68408
48 3 2 17.5878 -2.0923 6.23866
49 3 2 19.1164 -0.352178 6.81969
50 3 2 21.5324 -0.870721 6.38649
55 4 3 5.13033 17.7655 9.06224
11 2 1 -12.0872 -23.4263 12.2518
12 2 1 -10.9662 -22.7318 11.5044
13 2 3 -10.6548 -23.3432 10.4756
14 2 3 -9.92091 -22.3733 12.2666
24 2 2 -12.8453 -23.6226 11.4899
25 2 2 -12.4397 -22.7597 13.0846
26 2 2 -11.6723 -24.3891 12.6302
21 2 1 -7.32076 -22.8722 13.5785
22 2 3 -6.68666 -23.6574 12.8664
23 2 3 -7.2344 -22.9426 14.9312
31 2 2 -6.44671 -22.5726 15.4621
27 2 2 -9.92445 -20.2055 10.7097
20 2 1 -7.80648 -21.5936 12.9408
16 2 1 -9.15782 -20.2009 11.4632
28 2 2 -8.28864 -18.4185 10.9875
15 2 1 -8.84761 -21.4854 11.9758
17 2 1 -8.04798 -19.3776 11.3126
18 2 1 -7.1493 -19.4578 12.3784
19 2 1 -6.76726 -20.6824 12.8531
29 2 2 -6.39257 -18.7423 12.5046
30 2 2 -6.04468 -20.7406 13.6048
1 1 1 18.8063 7.07296 14.8301
2 1 1 19.6279 7.91652 15.4191
3 1 1 20.9381 8.32838 14.9099
7 1 2 17.9162 6.76593 15.2751
8 1 2 19.4298 8.14106 16.4747
5 1 4 21.0122 9.06551 13.7019
10 1 2 21.5293 8.59744 12.9659
4 1 3 21.9941 8.0058 15.5063
6 1 2 18.9577 6.67981 13.8171
9 1 2 20.9591 10.1737 13.6305
66 4 2 3.70133 16.7545 10.9732
69 4 2 5.69774 20.8629 9.79856
59 4 1 7.54519 21.63 9.22887
68 4 2 5.36149 16.0458 11.0242
54 4 1 5.33661 17.9519 10.3166
53 4 1 4.75624 16.9528 11.1563
56 4 3 6.65965 18.4058 10.7058
57 4 1 7.35782 19.4751 10.1126
58 4 1 6.73208 20.7728 9.97472
60 4 1 8.84525 21.6515 9.65366
62 4 1 8.81829 19.4441 10.3689
67 4 2 4.84322 17.2081 12.2711
63 4 1 9.58318 18.1855 10.791
61 4 1 9.54661 20.4825 9.78296
64 4 3 9.71655 17.1933 10.0156
65 4 3 10.3921 18.177 11.9348
72 4 2 10.257 20.2995 8.96547
73 4 2 10.1698 18.7131 12.8305
70 4 2 7.05873 22.5651 8.93024
71 4 2 9.33882 22.4977 9.26455
ITEM: TIMESTEP
3840
ITEM: NUMBER OF ATOMS
115
ITEM: BOX BOUNDS pp pp pp
-2.8628399999999999e+01 2.8628399999999999e+01
-2.8628399999999999e+01 2.8628399999999999e+01
-2.8628399999999999e+01 2.8628399999999999e+01
ITEM: ATOMS id mol type x y z
74 5 1 13.0712 -12.5433 -13.0096
75 5 1 13.7747 -11.133 -13.0871
76 5 3 14.1049 -10.6632 -14.2209
77 5 3 14.8445 -10.9766 -12.1948
78 5 1 15.5413 -9.75829 -11.8715
87 5 2 12.0904 -12.546 -13.4687
88 5 2 12.8847 -12.826 -11.9025
89 5 2 13.7768 -13.2089 -13.5087
83 5 1 16.8617 -9.89065 -11.273
84 5 1 17.9336 -10.862 -11.7567
85 5 3 17.6007 -12.0241 -12.1247
86 5 3 19.0701 -10.9283 -10.8718
94 5 2 18.9961 -11.2411 -9.93053
79 5 1 14.6703 -8.83191 -11.178
80 5 1 15.3236 -7.63421 -10.8223
90 5 2 13.6816 -8.62945 -11.5628
91 5 2 14.7176 -6.79584 -10.5579
81 5 1 16.6099 -7.75418 -10.2627
82 5 1 17.4305 -8.63716 -10.9563
92 5 2 16.9421 -6.78336 -9.80601
93 5 2 18.2839 -8.28877 -11.4647
97 6 3 17.4434 17.8142 -9.78192
95 6 1 15.5812 16.8306 -8.88512
108 6 2 15.3384 16.6183 -9.96319
109 6 2 14.6343 17.0271 -8.37366
110 6 2 16.0557 15.9321 -8.35508
96 6 1 16.5776 17.9118 -8.89731
98 6 3 17.0151 18.4826 -7.69428
99 6 1 18.0036 19.5131 -7.65337
100 6 1 17.6155 20.7739 -8.05606
101 6 1 18.5421 21.8822 -8.18333
102 6 1 19.5488 21.9695 -7.18281
103 6 1 19.942 20.7299 -6.60628
104 6 1 18.9828 19.6563 -6.6027
105 6 1 19.4804 18.3287 -6.04325
106 6 3 18.7321 17.5158 -5.45072
107 6 3 20.677 18.3516 -5.35581
111 6 2 16.9511 20.7723 -8.84266
114 6 2 20.5039 20.828 -5.69986
115 6 2 21.163 17.5736 -5.08096
112 6 2 18.0638 22.8815 -8.40716
113 6 2 20.2538 22.7632 -7.26354
32 3 1 15.7803 -5.84631 7.14841
45 3 2 14.7022 -5.78371 6.64824
46 3 2 15.7651 -5.30881 8.12128
47 3 2 16.0845 -6.89083 7.27931
33 3 1 16.7418 -5.0616 6.32082
34 3 3 16.8388 -5.25317 5.10432
35 3 3 18.007 -4.7184 6.90359
36 3 1 18.9977 -3.73273 6.49792
41 3 1 20.3436 -4.03499 6.9588
42 3 1 20.8848 -5.40246 6.79298
43 3 3 20.9049 -5.95095 5.65225
44 3 3 21.8559 -5.75346 7.73637
40 3 1 21.2489 -3.01153 6.55759
51 3 2 22.2645 -3.06337 6.75876
52 3 2 22.6659 -5.17978 7.89036
37 3 1 18.5466 -2.37273 6.51957
38 3 1 19.5164 -1.34969 6.47193
39 3 1 20.7976 -1.70946 6.78171
48 3 2 17.5139 -2.09896 6.14443
49 3 2 19.2096 -0.378024 6.81195
50 3 2 21.5175 -0.984548 6.64109
55 4 3 5.19137 17.7291 9.08476
11 2 1 -12.1381 -23.3859 12.3399
12 2 1 -10.994 -22.7426 11.5603
13 2 3 -10.6695 -23.3688 10.487
14 2 3 -9.94552 -22.2866 12.3796
24 2 2 -13.0302 -23.4569 11.612
25 2 2 -12.3803 -22.6565 13.1425
26 2 2 -11.7039 -24.3558 12.7238
21 2 1 -7.37904 -22.9856 13.6114
22 2 3 -6.73526 -23.7248 12.8253
23 2 3 -7.15935 -23.0248 15.0505
31 2 2 -6.22929 -22.8165 15.3249
27 2 2 -9.95469 -20.3221 10.7717
20 2 1 -7.79452 -21.6399 12.9945
16 2 1 -9.14614 -20.3322 11.5017
28 2 2 -8.36432 -18.4509 10.9136
15 2 1 -8.80623 -21.6152 11.9657
17 2 1 -8.10674 -19.3917 11.3575
18 2 1 -7.1357 -19.3676 12.3188
19 2 1 -6.74496 -20.6367 12.7289
29 2 2 -6.25339 -18.5888 12.1545
30 2 2 -5.89106 -20.6843 13.4098
1 1 1 18.7204 7.01116 14.8799
2 1 1 19.601 7.75704 15.536
3 1 1 20.9065 8.25904 14.8608
7 1 2 17.7921 6.73576 15.3577
8 1 2 19.3599 8.02707 16.5334
5 1 4 21.1355 8.99959 13.69
10 1 2 21.3533 8.4547 12.7806
4 1 3 21.932 8.03319 15.5171
6 1 2 18.8945 6.65945 13.8839
9 1 2 21.1679 10.051 13.7242
66 4 2 3.63189 16.8845 11.2485
69 4 2 5.758 20.6656 9.68979
59 4 1 7.56697 21.6714 9.25227
68 4 2 5.30307 15.9978 11.318
54 4 1 5.35536 17.9252 10.3293
53 4 1 4.76312 16.9725 11.3211
56 4 3 6.65549 18.3189 10.6015
57 4 1 7.37584 19.3778 10.1868
58 4 1 6.82798 20.6547 9.9609
60 4 1 8.94326 21.7456 9.65291
62 4 1 8.78691 19.3798 10.365
67 4 2 4.93557 17.4577 12.2786
63 4 1 9.52935 18.1499 10.8421
61 4 1 9.54296 20.4761 9.78144
64 4 3 9.74566 17.1888 10.0255
65 4 3 10.3131 18.2422 12.0164
72 4 2 10.073 20.2479 8.90685
73 4 2 9.9418 18.5885 12.8461
70 4 2 7.01625 22.5247 8.94541
71 4 2 9.47472 22.6166 9.37675
ITEM: TIMESTEP
3860
ITEM: NUMBER OF ATOMS
115
ITEM: BOX BOUNDS pp pp pp
-2.8628399999999999e+01 2.8628399999999999e+01
-2.8628399999999999e+01 2.8628399999999999e+01
-2.8628399999999999e+01 2.8628399999999999e+01
ITEM: ATOMS id mol type x y z
74 5 1 13.0925 -12.4933 -13.082
75 5 1 13.8419 -11.1586 -13.1288
76 5 3 14.062 -10.6452 -14.2582
77 5 3 14.8275 -10.9723 -12.1665
78 5 1 15.5577 -9.78804 -11.7847
87 5 2 12.1926 -12.3003 -13.6537
88 5 2 12.7946 -12.7457 -11.9863
89 5 2 13.663 -13.2919 -13.5967
83 5 1 16.9304 -9.8807 -11.2198
84 5 1 17.9663 -10.8918 -11.7968
85 5 3 17.6001 -12.053 -12.1037
86 5 3 19.0993 -10.879 -10.9583
94 5 2 19.0379 -11.0342 -9.89685
79 5 1 14.7483 -8.7352 -11.2235
80 5 1 15.3287 -7.54034 -10.6992
90 5 2 13.7231 -8.61261 -11.5933
91 5 2 14.7288 -6.64996 -10.639
81 5 1 16.5889 -7.7276 -10.1171
82 5 1 17.4544 -8.62777 -10.7822
92 5 2 16.9611 -6.89971 -9.56192
93 5 2 17.863 -8.08777 -11.6176
97 6 3 17.3385 17.8401 -9.8627
95 6 1 15.5095 16.8447 -8.83523
108 6 2 15.117 16.6001 -9.81876
109 6 2 14.6768 17.22 -8.20725
110 6 2 15.8741 15.909 -8.32857
96 6 1 16.5441 17.948 -8.9052
98 6 3 17.0888 18.4791 -7.64464
99 6 1 18.0731 19.5366 -7.56867
100 6 1 17.682 20.7774 -8.07108
101 6 1 18.5634 21.87 -8.05746
102 6 1 19.5706 21.9408 -7.16985
103 6 1 19.9498 20.7451 -6.5196
104 6 1 19.0114 19.6531 -6.38789
105 6 1 19.5134 18.3436 -6.01489
106 6 3 18.6626 17.5227 -5.51625
107 6 3 20.7559 18.3478 -5.38955
111 6 2 16.8086 20.7897 -8.82548
114 6 2 20.6449 20.8738 -5.71995
115 6 2 21.1227 17.4446 -5.12726
112 6 2 18.3128 22.7974 -8.46282
113 6 2 20.3849 22.6438 -7.46376
32 3 1 15.8416 -5.79764 7.20004
45 3 2 14.8713 -5.94948 6.64226
46 3 2 15.6773 -5.39885 8.14758
47 3 2 16.3155 -6.76247 7.31003
33 3 1 16.8128 -5.01631 6.3506
34 3 3 16.8733 -5.32178 5.11199
35 3 3 18.0063 -4.72502 6.99322
36 3 1 18.9572 -3.7556 6.55615
41 3 1 20.2768 -4.04305 6.82384
42 3 1 20.9132 -5.4303 6.73262
43 3 3 21.0197 -5.98398 5.63
44 3 3 21.8117 -5.73991 7.78139
40 3 1 21.2258 -3.00728 6.57136
51 3 2 22.1955 -3.15471 7.0177
52 3 2 22.7942 -5.48348 7.65392
37 3 1 18.5854 -2.40723 6.49439
38 3 1 19.4838 -1.35925 6.5203
39 3 1 20.8274 -1.65692 6.78464
48 3 2 17.6615 -2.1721 6.03401
49 3 2 19.1165 -0.355927 6.55293
50 3 2 21.5507 -0.928681 6.5625
55 4 3 5.17277 17.5715 9.0977
11 2 1 -12.1076 -23.3222 12.4352
12 2 1 -10.9265 -22.7928 11.6728
13 2 3 -10.6559 -23.3023 10.579
14 2 3 -9.89613 -22.3282 12.4057
24 2 2 -13.0377 -23.4424 11.7722
25 2 2 -12.3482 -22.7058 13.3188
26 2 2 -11.8097 -24.3379 12.7694
21 2 1 -7.3302 -22.9313 13.5814
22 2 3 -6.79413 -23.8086 12.9488
23 2 3 -7.18761 -23.0787 14.9808
31 2 2 -6.4286 -22.6299 15.5269
27 2 2 -10.0051 -20.2612 10.8417
20 2 1 -7.72178 -21.6619 13.0255
16 2 1 -9.07302 -20.389 11.4284
28 2 2 -8.40905 -18.459 10.9697
15 2 1 -8.76413 -21.647 12.0104
17 2 1 -8.08294 -19.4054 11.3455
18 2 1 -7.0481 -19.4356 12.2482
19 2 1 -6.66315 -20.6857 12.8004
29 2 2 -6.27063 -18.7543 12.0594
30 2 2 -5.81593 -20.637 13.499
1 1 1 18.7503 6.93204 14.9536
2 1 1 19.6305 7.79568 15.4796
3 1 1 20.8522 8.24884 14.8549
7 1 2 17.8638 6.69862 15.5487
8 1 2 19.3448 8.10541 16.5154
5 1 4 21.0288 8.98158 13.6453
10 1 2 21.4069 8.47778 12.8164
4 1 3 21.902 8.00521 15.5438
6 1 2 18.9161 6.43537 13.9749
9 1 2 20.9458 9.90699 13.6256
66 4 2 3.62247 16.8793 10.9973
69 4 2 5.66149 20.6116 9.45626
59 4 1 7.55244 21.6747 9.2748
68 4 2 5.24582 16.0056 11.4625
54 4 1 5.37943 17.8757 10.3117
53 4 1 4.71316 16.9567 11.3662
56 4 3 6.65105 18.3299 10.6333
57 4 1 7.41558 19.4091 10.0366
58 4 1 6.73473 20.6796 9.83064
60 4 1 8.88566 21.6065 9.6325
62 4 1 8.76556 19.458 10.5403
67 4 2 4.74876 17.5162 12.3351
63 4 1 9.45129 18.1163 10.9747
61 4 1 9.5597 20.3741 9.81386
64 4 3 9.73249 17.2787 10.0582
65 4 3 10.307 18.1684 12.0544
72 4 2 10.0023 19.9856 8.89353
73 4 2 9.98275 18.5357 12.955
70 4 2 7.14654 22.6277 9.28874
71 4 2 9.48794 22.3886 9.19788
ITEM: TIMESTEP
3880
ITEM: NUMBER OF ATOMS
115
ITEM: BOX BOUNDS pp pp pp
-2.8628399999999999e+01 2.8628399999999999e+01
-2.8628399999999999e+01 2.8628399999999999e+01
-2.8628399999999999e+01 2.8628399999999999e+01
ITEM: ATOMS id mol type x y z
74 5 1 13.0792 -12.3976 -13.1941
75 5 1 13.8036 -11.1152 -13.1109
76 5 3 13.9934 -10.6415 -14.2766
77 5 3 14.8394 -10.9702 -12.0864
78 5 1 15.4887 -9.77669 -11.7455
87 5 2 12.0706 -12.4048 -13.6809
88 5 2 12.968 -12.7475 -12.1478
89 5 2 13.6528 -13.0842 -13.7412
83 5 1 16.8423 -9.90626 -11.1265
84 5 1 17.925 -10.8873 -11.6493
85 5 3 17.5844 -12.0363 -12.1074
86 5 3 19.1717 -10.8549 -11.0429
94 5 2 19.222 -11.2265 -10.1419
79 5 1 14.7542 -8.68919 -11.231
80 5 1 15.4071 -7.49189 -10.8089
90 5 2 13.8666 -8.43792 -11.7408
91 5 2 14.7248 -6.75159 -10.3998
81 5 1 16.6503 -7.67178 -10.1322
82 5 1 17.4073 -8.64462 -10.7902
92 5 2 17.1954 -6.80618 -9.70203
93 5 2 18.1482 -8.16964 -11.4054
97 6 3 17.3064 17.8927 -9.90248
95 6 1 15.5577 16.8365 -8.76615
108 6 2 14.9186 16.8483 -9.74461
109 6 2 14.8979 16.9395 -7.92786
110 6 2 15.9675 15.8154 -8.655
96 6 1 16.6238 17.9399 -8.82664
98 6 3 17.1762 18.4873 -7.62544
99 6 1 18.0048 19.5947 -7.50956
100 6 1 17.629 20.8864 -7.97784
101 6 1 18.6163 21.8707 -8.14426
102 6 1 19.5831 21.9561 -7.08449
103 6 1 20.0108 20.6954 -6.5702
104 6 1 18.9776 19.6403 -6.41158
105 6 1 19.4974 18.3205 -5.93923
106 6 3 18.6513 17.5136 -5.46573
107 6 3 20.7988 18.2784 -5.41699
111 6 2 17.0805 20.8159 -8.90206
114 6 2 20.7194 20.7659 -5.80956
115 6 2 21.4203 17.4557 -5.62615
112 6 2 18.2406 22.8295 -8.51618
113 6 2 20.2616 22.8335 -7.09863
32 3 1 15.8636 -5.84238 7.20914
45 3 2 14.9522 -6.11937 6.72346
46 3 2 15.6292 -5.23378 8.131
47 3 2 16.3848 -6.81624 7.53817
33 3 1 16.7751 -5.0231 6.32004
34 3 3 16.8603 -5.27853 5.09259
35 3 3 17.9452 -4.66138 6.94782
36 3 1 18.8997 -3.78336 6.51163
41 3 1 20.288 -4.04422 6.92178
42 3 1 20.9109 -5.46179 6.79329
43 3 3 21.0441 -6.06666 5.71334
44 3 3 21.8147 -5.73898 7.73693
40 3 1 21.256 -2.98681 6.65273
51 3 2 22.3189 -3.12887 6.8744
52 3 2 22.8134 -5.64005 7.55837
37 3 1 18.4762 -2.36593 6.48793
38 3 1 19.4742 -1.34038 6.56063
39 3 1 20.7701 -1.60394 6.80532
48 3 2 17.5541 -2.10116 6.05259
49 3 2 19.1331 -0.380457 6.85496
50 3 2 21.4586 -0.774392 6.58433
55 4 3 5.17571 17.4804 9.09899
11 2 1 -12.1486 -23.3638 12.4056
12 2 1 -10.943 -22.7626 11.6551
13 2 3 -10.6138 -23.2312 10.5658
14 2 3 -9.80315 -22.4184 12.4796
24 2 2 -13.0087 -23.3916 11.77
25 2 2 -12.2494 -22.7217 13.3573
26 2 2 -11.9491 -24.3577 12.7628
21 2 1 -7.32519 -22.9223 13.5784
22 2 3 -6.7582 -23.8563 12.937
23 2 3 -7.20459 -23.041 14.9957
31 2 2 -6.36482 -22.7577 15.4921
27 2 2 -9.74876 -20.3937 10.6234
20 2 1 -7.71539 -21.5806 13.0153
16 2 1 -9.07202 -20.307 11.4175
28 2 2 -8.33868 -18.3932 11.0704
15 2 1 -8.71145 -21.5755 12.0211
17 2 1 -7.99832 -19.4095 11.2721
18 2 1 -7.01067 -19.4627 12.2622
19 2 1 -6.68733 -20.7253 12.7778
29 2 2 -6.22946 -18.7433 12.2534
30 2 2 -5.90771 -20.7245 13.5224
1 1 1 18.8105 6.90465 14.8757
2 1 1 19.6001 7.83356 15.4547
3 1 1 20.8865 8.2502 14.9238
7 1 2 17.8827 6.73186 15.2684
8 1 2 19.195 8.23155 16.3869
5 1 4 20.9987 9.07162 13.7353
10 1 2 21.663 8.83315 12.9922
4 1 3 21.9557 7.96262 15.5657
6 1 2 18.9413 6.45532 13.9332
9 1 2 20.6799 10.0848 13.7804
66 4 2 3.61094 16.8229 10.943
69 4 2 5.70425 20.5917 9.57144
59 4 1 7.56226 21.621 9.306
68 4 2 5.36196 16.1114 11.3047
54 4 1 5.29177 17.8872 10.3074
53 4 1 4.67052 17.0121 11.2648
56 4 3 6.54883 18.3964 10.6825
57 4 1 7.36987 19.3236 9.97909
58 4 1 6.73015 20.5645 9.73336
60 4 1 8.93074 21.6355 9.72486
62 4 1 8.68561 19.4056 10.4929
67 4 2 4.67864 17.5029 12.259
63 4 1 9.39075 18.153 10.9982
61 4 1 9.5027 20.3454 9.87536
64 4 3 9.72396 17.3618 10.135
65 4 3 10.2937 18.0851 12.0743
72 4 2 10.077 19.9233 8.99837
73 4 2 10.1432 18.6625 12.9242
70 4 2 7.02143 22.5132 9.13559
71 4 2 9.60286 22.4003 9.26621
ITEM: TIMESTEP
3900
ITEM: NUMBER OF ATOMS
115
ITEM: BOX BOUNDS pp pp pp
-2.8628399999999999e+01 2.8628399999999999e+01
-2.8628399999999999e+01 2.8628399999999999e+01
-2.8628399999999999e+01 2.8628399999999999e+01
ITEM: ATOMS id mol type x y z
74 5 1 13.1648 -12.4445 -13.0959
75 5 1 13.7453 -11.0615 -13.0786
76 5 3 13.9251 -10.6994 -14.2476
77 5 3 14.8055 -10.8756 -12.1346
78 5 1 15.5282 -9.76432 -11.7711
87 5 2 12.2516 -12.4846 -13.7093
88 5 2 12.9072 -12.7348 -12.1084
89 5 2 13.7832 -13.2557 -13.5199
83 5 1 16.8266 -9.93608 -11.0696
84 5 1 17.8487 -10.9449 -11.5067
85 5 3 17.5533 -11.985 -12.0993
86 5 3 19.1777 -10.8364 -11.0028
94 5 2 19.3838 -11.137 -10.0986
79 5 1 14.7486 -8.68062 -11.2641
80 5 1 15.4437 -7.48391 -10.9558
90 5 2 13.6689 -8.48771 -11.5333
91 5 2 14.7297 -6.76751 -10.5939
81 5 1 16.6503 -7.69324 -10.3006
82 5 1 17.5352 -8.70867 -10.7427
92 5 2 17.092 -6.80599 -9.90385
93 5 2 18.1933 -8.32961 -11.5074
97 6 3 17.2667 17.9229 -9.89343
95 6 1 15.6147 16.8833 -8.70019
108 6 2 14.8852 16.7307 -9.51313
109 6 2 14.991 17.052 -7.84468
110 6 2 16.2408 15.98 -8.64302
96 6 1 16.5323 18.0591 -8.86519
98 6 3 17.2362 18.4665 -7.74781
99 6 1 18.0221 19.6668 -7.5146
100 6 1 17.613 20.9929 -8.00952
101 6 1 18.6048 21.9392 -8.05888
102 6 1 19.5187 21.8846 -7.00139
103 6 1 19.9186 20.6508 -6.56655
104 6 1 19.0197 19.6359 -6.49885
105 6 1 19.5048 18.3206 -5.84018
106 6 3 18.7187 17.4068 -5.48776
107 6 3 20.8123 18.2108 -5.43382
111 6 2 16.8421 21.0784 -8.66677
114 6 2 20.6361 20.6787 -5.74399
115 6 2 21.4058 17.5131 -5.78217
112 6 2 18.3134 22.905 -8.4111
113 6 2 20.2904 22.6173 -7.09516
32 3 1 15.8762 -5.82763 7.19785
45 3 2 14.905 -6.11826 6.70932
46 3 2 15.6394 -5.21463 8.0959
47 3 2 16.4292 -6.76827 7.56426
33 3 1 16.7416 -4.96325 6.2945
34 3 3 16.8407 -5.28405 5.08642
35 3 3 17.9931 -4.68104 6.89242
36 3 1 18.9447 -3.76168 6.45092
41 3 1 20.2393 -3.98491 6.9425
42 3 1 20.8312 -5.44143 6.87296
43 3 3 20.9864 -5.98256 5.75498
44 3 3 21.8634 -5.81244 7.75762
40 3 1 21.1522 -2.98528 6.70234
51 3 2 22.1299 -3.13782 7.07118
52 3 2 22.7064 -5.27153 7.76285
37 3 1 18.4797 -2.43147 6.60348
38 3 1 19.4106 -1.33937 6.55244
39 3 1 20.7555 -1.64582 6.84981
48 3 2 17.4819 -2.26904 6.26414
49 3 2 19.0634 -0.351896 6.96172
50 3 2 21.5326 -0.879129 6.64659
55 4 3 5.26201 17.4254 9.07755
11 2 1 -12.1285 -23.3574 12.3094
12 2 1 -10.9453 -22.7442 11.6312
13 2 3 -10.6691 -23.2495 10.5239
14 2 3 -9.85366 -22.3946 12.4208
24 2 2 -12.9798 -23.2041 11.7194
25 2 2 -12.2789 -22.8888 13.3275
26 2 2 -11.9388 -24.5022 12.4679
21 2 1 -7.27537 -22.9398 13.5931
22 2 3 -6.72997 -23.7951 12.8718
23 2 3 -7.25137 -22.9567 14.9567
31 2 2 -6.39155 -23.1061 15.4383
27 2 2 -9.73722 -20.299 10.616
20 2 1 -7.66993 -21.6008 13.0454
16 2 1 -9.00062 -20.3279 11.4331
28 2 2 -8.17371 -18.4975 10.8435
15 2 1 -8.81314 -21.5952 12.087
17 2 1 -7.93954 -19.4476 11.3298
18 2 1 -7.00757 -19.392 12.3919
19 2 1 -6.61096 -20.7359 12.8106
29 2 2 -6.21878 -18.6067 12.3913
30 2 2 -5.75618 -20.7779 13.4955
1 1 1 18.7642 7.03074 14.8744
2 1 1 19.6084 7.90862 15.4628
3 1 1 20.8783 8.25883 14.9379
7 1 2 17.8179 6.81549 15.315
8 1 2 19.2165 8.28721 16.3729
5 1 4 20.9165 9.19464 13.8617
10 1 2 21.7183 9.19568 13.2449
4 1 3 21.9523 8.02023 15.5407
6 1 2 19.053 6.52787 14.0047
9 1 2 20.5548 10.1467 14.1787
66 4 2 3.73069 16.5828 11.0064
69 4 2 5.77264 20.615 9.34409
59 4 1 7.59736 21.5632 9.2505
68 4 2 5.44477 16.0421 11.3605
54 4 1 5.26824 17.8779 10.2494
53 4 1 4.70565 16.9071 11.3026
56 4 3 6.52294 18.3883 10.5989
57 4 1 7.35333 19.2539 9.95573
58 4 1 6.77665 20.5662 9.7951
60 4 1 8.8399 21.6821 9.792
62 4 1 8.69379 19.3699 10.5372
67 4 2 4.69799 17.4258 12.3586
63 4 1 9.37833 18.0794 10.9332
61 4 1 9.48158 20.4086 9.84183
64 4 3 9.73676 17.3032 10.0686
65 4 3 10.3268 18.0987 12.0265
72 4 2 9.91622 20.0768 8.96516
73 4 2 10.1586 18.4923 12.9207
70 4 2 7.04675 22.5725 9.19436
71 4 2 9.46223 22.5318 9.65628
ITEM: TIMESTEP
3920
ITEM: NUMBER OF ATOMS
115
ITEM: BOX BOUNDS pp pp pp
-2.8628399999999999e+01 2.8628399999999999e+01
-2.8628399999999999e+01 2.8628399999999999e+01
-2.8628399999999999e+01 2.8628399999999999e+01
ITEM: ATOMS id mol type x y z
74 5 1 13.144 -12.5018 -12.9782
75 5 1 13.7719 -11.1335 -13.0837
76 5 3 13.9541 -10.6685 -14.2336
77 5 3 14.8358 -10.9213 -12.1451
78 5 1 15.6038 -9.75008 -11.7656
87 5 2 12.288 -12.5715 -13.6646
88 5 2 12.7959 -12.8303 -11.9888
89 5 2 13.9287 -13.3067 -13.385
83 5 1 16.9147 -9.8747 -11.0584
84 5 1 17.8527 -10.9383 -11.4985
85 5 3 17.5302 -12.012 -12.0355
86 5 3 19.1494 -10.8851 -11.0012
94 5 2 19.4066 -10.9273 -10.0273
79 5 1 14.8108 -8.70755 -11.2585
80 5 1 15.4859 -7.51791 -10.9426
90 5 2 13.8712 -8.45396 -11.7621
91 5 2 14.7668 -6.77799 -10.585
81 5 1 16.7064 -7.62036 -10.3235
82 5 1 17.5451 -8.65843 -10.7316
92 5 2 17.2303 -6.70187 -10.1044
93 5 2 18.3089 -8.36934 -11.3917
97 6 3 17.1876 18.0301 -9.89527
95 6 1 15.5211 17.0114 -8.71702
108 6 2 15.1164 16.8591 -9.74414
109 6 2 14.6355 17.2632 -8.03647
110 6 2 15.9828 16.0676 -8.34735
96 6 1 16.4757 18.0968 -8.84523
98 6 3 17.132 18.5483 -7.6994
99 6 1 18.102 19.6167 -7.63234
100 6 1 17.6085 20.9651 -7.93241
101 6 1 18.6205 21.9529 -8.04256
102 6 1 19.5209 21.9322 -6.96619
103 6 1 19.9724 20.7209 -6.45829
104 6 1 18.963 19.5967 -6.49282
105 6 1 19.4997 18.2324 -5.91313
106 6 3 18.7712 17.3104 -5.49248
107 6 3 20.8207 18.1821 -5.40703
111 6 2 16.8408 21.011 -8.74183
114 6 2 20.5936 20.7358 -5.549
115 6 2 21.4306 17.4305 -5.52828
112 6 2 18.2845 22.909 -8.33736
113 6 2 20.2501 22.7444 -6.94273
32 3 1 15.9111 -5.76775 7.14699
45 3 2 14.8463 -5.78752 6.691
46 3 2 15.8301 -5.35278 8.18945
47 3 2 16.2423 -6.84199 7.17364
33 3 1 16.7926 -4.94034 6.29036
34 3 3 16.7419 -5.28 5.11055
35 3 3 18.0561 -4.71363 6.75431
36 3 1 18.945 -3.67173 6.45102
41 3 1 20.2639 -4.02326 6.97324
42 3 1 20.8668 -5.44515 6.90875
43 3 3 20.962 -5.91422 5.79057
44 3 3 21.8687 -5.76597 7.87132
40 3 1 21.1861 -3.01362 6.82744
51 3 2 22.1406 -3.16177 7.27025
52 3 2 22.7689 -5.34997 7.67477
37 3 1 18.4731 -2.41547 6.77732
38 3 1 19.358 -1.40915 6.57284
39 3 1 20.6791 -1.67509 6.96228
48 3 2 17.4597 -2.21329 6.40864
49 3 2 19.0526 -0.404209 6.63712
50 3 2 21.3216 -0.906276 6.76946
55 4 3 5.28706 17.294 9.0559
11 2 1 -12.1183 -23.3594 12.2929
12 2 1 -10.9526 -22.8014 11.634
13 2 3 -10.7662 -23.3019 10.5023
14 2 3 -9.88388 -22.381 12.4557
24 2 2 -12.9894 -23.3994 11.6183
25 2 2 -12.3658 -22.7739 13.1855
26 2 2 -11.8843 -24.4323 12.582
21 2 1 -7.26867 -22.8791 13.5751
22 2 3 -6.7091 -23.7944 12.8928
23 2 3 -7.20519 -22.9662 14.9426
31 2 2 -6.23264 -22.8591 15.3728
27 2 2 -9.88571 -20.4195 10.6472
20 2 1 -7.67538 -21.6135 12.9957
16 2 1 -9.0954 -20.4042 11.443
28 2 2 -8.42505 -18.3901 11.1711
15 2 1 -8.72789 -21.6604 12.0185
17 2 1 -8.05303 -19.4042 11.373
18 2 1 -7.04357 -19.4415 12.368
19 2 1 -6.67253 -20.673 12.7897
29 2 2 -6.28355 -18.7 12.3382
30 2 2 -5.85416 -20.7123 13.4163
1 1 1 18.7091 6.98417 14.8056
2 1 1 19.5792 7.82689 15.4276
3 1 1 20.887 8.20399 14.8822
7 1 2 17.6658 6.77243 15.1709
8 1 2 19.2009 8.43791 16.2014
5 1 4 20.8807 9.3 13.9397
10 1 2 21.655 9.37904 13.2393
4 1 3 21.9262 8.03366 15.617
6 1 2 19.1569 6.37127 13.9107
9 1 2 20.305 10.1539 14.1216
66 4 2 3.73153 16.5754 10.9151
69 4 2 5.67947 20.6742 9.44845
59 4 1 7.5302 21.6194 9.29021
68 4 2 5.35569 15.9384 11.3552
54 4 1 5.32123 17.778 10.2275
53 4 1 4.72933 16.8816 11.2828
56 4 3 6.5352 18.3402 10.6262
57 4 1 7.29251 19.3319 9.97272
58 4 1 6.6995 20.6073 9.79147
60 4 1 8.88255 21.6566 9.80833
62 4 1 8.72352 19.3435 10.4593
67 4 2 4.63926 17.456 12.2544
63 4 1 9.41068 18.0323 10.8457
61 4 1 9.49937 20.3653 9.88597
64 4 3 9.69541 17.1535 9.99614
65 4 3 10.2858 18.0942 11.9453
72 4 2 10.1381 20.0209 9.00721
73 4 2 9.96368 18.5011 12.7984
70 4 2 7.08756 22.6157 9.09873
71 4 2 9.56226 22.4479 9.5395
ITEM: TIMESTEP
3940
ITEM: NUMBER OF ATOMS
115
ITEM: BOX BOUNDS pp pp pp
-2.8628399999999999e+01 2.8628399999999999e+01
-2.8628399999999999e+01 2.8628399999999999e+01
-2.8628399999999999e+01 2.8628399999999999e+01
ITEM: ATOMS id mol type x y z
74 5 1 13.1358 -12.4843 -12.9733
75 5 1 13.773 -11.1029 -13.0776
76 5 3 13.9284 -10.5016 -14.1638
77 5 3 14.8421 -10.971 -12.1524
78 5 1 15.6077 -9.78158 -11.8486
87 5 2 12.2202 -12.4939 -13.5856
88 5 2 12.773 -12.7248 -11.9076
89 5 2 13.8791 -13.2521 -13.1953
83 5 1 16.8332 -9.87757 -11.1126
84 5 1 17.906 -10.9271 -11.5296
85 5 3 17.5163 -12.0616 -11.88
86 5 3 19.2039 -10.8386 -10.9623
94 5 2 19.4422 -10.838 -9.91278
79 5 1 14.8582 -8.65742 -11.3507
80 5 1 15.5344 -7.44179 -10.925
90 5 2 13.8582 -8.55668 -11.7094
91 5 2 14.7974 -6.72704 -10.5327
81 5 1 16.7512 -7.59468 -10.2455
82 5 1 17.4514 -8.63922 -10.7409
92 5 2 17.3845 -6.75537 -9.90436
93 5 2 18.2851 -8.30176 -11.3783
97 6 3 17.1776 18.135 -9.88446
95 6 1 15.3917 17.0354 -8.70124
108 6 2 14.8184 16.8554 -9.64608
109 6 2 14.6664 17.3859 -7.94856
110 6 2 15.7896 16.1252 -8.29786
96 6 1 16.5149 18.1014 -8.83708
98 6 3 17.1365 18.5643 -7.64808
99 6 1 18.0879 19.5402 -7.5802
100 6 1 17.7018 20.8846 -7.98913
101 6 1 18.6106 21.9232 -7.94495
102 6 1 19.5318 21.9568 -6.94169
103 6 1 19.9563 20.7277 -6.4176
104 6 1 19.0637 19.5045 -6.52367
105 6 1 19.5304 18.2154 -5.91953
106 6 3 18.7416 17.3883 -5.43265
107 6 3 20.8262 18.1757 -5.4438
111 6 2 16.9835 20.9713 -8.73977
114 6 2 20.5231 20.7867 -5.55455
115 6 2 21.3248 17.2987 -5.23674
112 6 2 18.2321 22.9256 -8.2562
113 6 2 20.2959 22.6938 -7.03125
32 3 1 16.023 -5.81759 7.1552
45 3 2 14.9823 -5.86347 6.90386
46 3 2 16.0499 -5.51006 8.21086
47 3 2 16.3491 -6.80173 7.10636
33 3 1 16.7644 -4.93543 6.25187
34 3 3 16.7908 -5.17778 5.01846
35 3 3 18.0391 -4.76785 6.81339
36 3 1 18.9996 -3.78881 6.59164
41 3 1 20.2871 -3.99989 7.1488
42 3 1 20.8209 -5.41733 6.95538
43 3 3 20.9634 -5.91008 5.82336
44 3 3 21.7518 -5.72158 7.94976
40 3 1 21.1928 -2.92257 6.92493
51 3 2 22.2182 -3.09533 7.24399
52 3 2 22.7134 -5.406 7.82659
37 3 1 18.4945 -2.46476 6.72172
38 3 1 19.4012 -1.44508 6.65336
39 3 1 20.7042 -1.64461 7.13005
48 3 2 17.5377 -2.26828 6.24376
49 3 2 19.0484 -0.454133 6.77185
50 3 2 21.3991 -0.86375 6.92766
55 4 3 5.33319 17.2335 9.05536
11 2 1 -12.1339 -23.4002 12.3908
12 2 1 -10.9767 -22.8126 11.6169
13 2 3 -10.7852 -23.3197 10.502
14 2 3 -9.84504 -22.5049 12.388
24 2 2 -13.0178 -23.525 11.7392
25 2 2 -12.4503 -22.7844 13.225
26 2 2 -11.7367 -24.3821 12.6359
21 2 1 -7.24057 -22.8859 13.5852
22 2 3 -6.65741 -23.8128 12.9453
23 2 3 -7.26013 -23.0236 14.9765
31 2 2 -6.53176 -22.6236 15.4983
27 2 2 -9.74416 -20.4121 10.5926
20 2 1 -7.74103 -21.6786 12.9744
16 2 1 -9.1182 -20.3921 11.4525
28 2 2 -8.53396 -18.4344 11.0915
15 2 1 -8.77572 -21.6654 12.0721
17 2 1 -8.1814 -19.4142 11.3355
18 2 1 -7.08157 -19.4505 12.2589
19 2 1 -6.68118 -20.683 12.7992
29 2 2 -6.3639 -18.6913 12.0166
30 2 2 -5.94217 -20.5951 13.6243
1 1 1 18.6888 6.9521 14.7608
2 1 1 19.4945 7.78538 15.3905
3 1 1 20.8111 8.13758 14.8454
7 1 2 17.7253 6.70891 15.0337
8 1 2 19.2039 8.28248 16.3337
5 1 4 20.8047 9.27273 14.0128
10 1 2 21.6524 9.37814 13.4183
4 1 3 21.8163 8.00885 15.596
6 1 2 18.9675 6.63337 13.819
9 1 2 20.5396 10.0696 14.5717
66 4 2 3.71821 16.5709 10.813
69 4 2 5.78276 20.6466 9.4408
59 4 1 7.5851 21.6962 9.33214
68 4 2 5.28971 16.0109 11.4333
54 4 1 5.31598 17.7495 10.2151
53 4 1 4.67956 16.9197 11.2768
56 4 3 6.51384 18.3263 10.6518
57 4 1 7.27315 19.3425 10.015
58 4 1 6.78073 20.6506 9.79976
60 4 1 8.9713 21.6401 9.78026
62 4 1 8.66649 19.2575 10.4608
67 4 2 4.44428 17.4607 12.2306
63 4 1 9.31549 18.0139 10.7959
61 4 1 9.52301 20.3196 9.95392
64 4 3 9.58501 17.1244 9.97505
65 4 3 10.2394 18.1163 11.8846
72 4 2 10.0755 19.9695 9.07484
73 4 2 9.93936 18.6112 12.7086
70 4 2 7.15935 22.6543 9.36927
71 4 2 9.6711 22.3623 9.43235
ITEM: TIMESTEP
3960
ITEM: NUMBER OF ATOMS
115
ITEM: BOX BOUNDS pp pp pp
-2.8628399999999999e+01 2.8628399999999999e+01
-2.8628399999999999e+01 2.8628399999999999e+01
-2.8628399999999999e+01 2.8628399999999999e+01
ITEM: ATOMS id mol type x y z
74 5 1 13.0594 -12.4136 -13.1225
75 5 1 13.823 -11.0768 -12.9989
76 5 3 13.9605 -10.5312 -14.0761
77 5 3 14.9148 -10.9752 -12.1211
78 5 1 15.6028 -9.75215 -11.77
87 5 2 12.1832 -12.3711 -13.8502
88 5 2 12.673 -12.5044 -12.0851
89 5 2 13.7516 -13.2669 -13.2472
83 5 1 16.8489 -9.9427 -11.1185
84 5 1 17.8854 -10.8993 -11.586
85 5 3 17.6167 -12.098 -11.8278
86 5 3 19.1695 -10.7326 -11.0143
94 5 2 19.271 -11.0147 -10.0358
79 5 1 14.7975 -8.61304 -11.3828
80 5 1 15.481 -7.47796 -10.8712
90 5 2 13.9852 -8.38887 -12.0857
91 5 2 14.8255 -6.66438 -10.6213
81 5 1 16.6811 -7.6886 -10.2074
82 5 1 17.5138 -8.69488 -10.7565
92 5 2 17.1761 -6.8788 -9.82244
93 5 2 18.1662 -8.294 -11.5779
97 6 3 17.1151 18.1704 -9.85672
95 6 1 15.495 17.0441 -8.72973
108 6 2 14.8169 16.861 -9.61013
109 6 2 14.8113 17.1799 -7.85577
110 6 2 16.1265 16.1028 -8.35691
96 6 1 16.4016 18.2281 -8.85726
98 6 3 17.1544 18.4904 -7.72035
99 6 1 18.1218 19.5158 -7.65144
100 6 1 17.7145 20.788 -8.05135
101 6 1 18.6201 21.8678 -7.95503
102 6 1 19.518 21.904 -6.90979
103 6 1 19.9931 20.6576 -6.48648
104 6 1 19.0803 19.5859 -6.51779
105 6 1 19.5235 18.2428 -5.97351
106 6 3 18.7312 17.4389 -5.43026
107 6 3 20.8162 18.1592 -5.41725
111 6 2 17.0165 20.8256 -8.82548
114 6 2 20.6627 20.6891 -5.67233
115 6 2 21.1093 17.3865 -4.91251
112 6 2 18.1825 22.8129 -8.17372
113 6 2 20.2081 22.7394 -6.77361
32 3 1 15.9563 -5.87746 7.11993
45 3 2 14.8468 -5.97782 6.85094
46 3 2 15.9769 -5.61353 8.24722
47 3 2 16.4018 -6.92553 7.11049
33 3 1 16.8268 -5.02941 6.24997
34 3 3 16.734 -5.25906 4.99134
35 3 3 18.0385 -4.79847 6.86959
36 3 1 19.013 -3.83597 6.60175
41 3 1 20.3078 -4.04234 7.13626
42 3 1 20.8307 -5.36407 6.94961
43 3 3 21.0471 -5.84613 5.80578
44 3 3 21.6825 -5.78934 8.00118
40 3 1 21.2204 -2.92797 7.02503
51 3 2 22.229 -3.07997 7.2806
52 3 2 22.4865 -5.27477 8.19
37 3 1 18.5043 -2.46665 6.6757
38 3 1 19.4573 -1.39344 6.61326
39 3 1 20.7002 -1.65382 7.2806
48 3 2 17.5288 -2.1959 6.27823
49 3 2 19.0868 -0.397138 6.74347
50 3 2 21.4222 -0.817272 7.40102
55 4 3 5.24258 17.2029 9.15453
11 2 1 -12.1007 -23.4188 12.4281
12 2 1 -11.0081 -22.8497 11.575
13 2 3 -10.8088 -23.3642 10.4649
14 2 3 -9.86573 -22.5384 12.3688
24 2 2 -13.033 -23.3145 11.8722
25 2 2 -12.1849 -22.744 13.3448
26 2 2 -11.8601 -24.506 12.7126
21 2 1 -7.26999 -22.9246 13.6303
22 2 3 -6.57125 -23.7847 13.0225
23 2 3 -7.28128 -23.0669 14.9865
31 2 2 -6.48907 -22.7209 15.4666
27 2 2 -9.8932 -20.469 10.6933
20 2 1 -7.7421 -21.6705 13.0174
16 2 1 -9.20301 -20.3987 11.4673
28 2 2 -8.33639 -18.6222 10.7052
15 2 1 -8.83135 -21.675 12.1159
17 2 1 -8.15278 -19.5034 11.2499
18 2 1 -7.12606 -19.4221 12.192
19 2 1 -6.6868 -20.678 12.7466
29 2 2 -6.36597 -18.6721 11.9297
30 2 2 -5.81685 -20.6083 13.4788
1 1 1 18.689 7.0028 14.7048
2 1 1 19.5326 7.68633 15.4684
3 1 1 20.7928 8.07791 14.9014
7 1 2 17.7058 6.84914 15.064
8 1 2 19.1552 8.12395 16.4112
5 1 4 20.806 9.22727 13.9914
10 1 2 21.3579 9.19672 13.0823
4 1 3 21.7671 7.97005 15.6171
6 1 2 18.9608 6.7038 13.6951
9 1 2 20.3674 10.115 14.2852
66 4 2 3.5763 16.6026 11.0421
69 4 2 5.78747 20.6753 9.22156
59 4 1 7.65732 21.6815 9.37974
68 4 2 5.22649 16.1255 11.6742
54 4 1 5.25933 17.8103 10.2402
53 4 1 4.59246 16.9697 11.3126
56 4 3 6.4032 18.4218 10.7218
57 4 1 7.2732 19.3373 10.0658
58 4 1 6.7394 20.6558 9.72136
60 4 1 8.95078 21.5176 9.76944
62 4 1 8.68987 19.2714 10.5515
67 4 2 4.50052 17.6751 12.0634
63 4 1 9.26826 17.9963 10.8952
61 4 1 9.48391 20.2021 9.83109
64 4 3 9.51906 17.2111 9.95602
65 4 3 10.2451 18.0025 11.8522
72 4 2 9.97996 19.8654 8.93494
73 4 2 10.0503 18.5299 12.709
70 4 2 7.35334 22.7012 9.23205
71 4 2 9.68287 22.2985 9.61641
ITEM: TIMESTEP
3980
ITEM: NUMBER OF ATOMS
115
ITEM: BOX BOUNDS pp pp pp
-2.8628399999999999e+01 2.8628399999999999e+01
-2.8628399999999999e+01 2.8628399999999999e+01
-2.8628399999999999e+01 2.8628399999999999e+01
ITEM: ATOMS id mol type x y z
74 5 1 12.9925 -12.324 -13.0104
75 5 1 13.8178 -11.0737 -12.9431
76 5 3 13.9009 -10.4899 -14.0952
77 5 3 14.9142 -11.0212 -12.0627
78 5 1 15.6376 -9.80031 -11.7197
87 5 2 12.226 -12.1427 -13.7177
88 5 2 12.6124 -12.7989 -12.0588
89 5 2 13.7896 -12.984 -13.405
83 5 1 16.9281 -9.95247 -11.1115
84 5 1 17.9665 -10.9331 -11.6142
85 5 3 17.6495 -12.1275 -11.7937
86 5 3 19.1689 -10.7293 -10.9688
94 5 2 19.2631 -11.2649 -10.0995
79 5 1 14.8011 -8.71697 -11.3965
80 5 1 15.4358 -7.52136 -10.8574
90 5 2 13.9021 -8.53716 -11.9617
91 5 2 14.7614 -6.80217 -10.3608
81 5 1 16.6227 -7.70588 -10.2354
82 5 1 17.4982 -8.68247 -10.8182
92 5 2 17.1684 -6.84738 -9.90795
93 5 2 18.0098 -8.17537 -11.612
97 6 3 17.0373 18.2051 -9.91254
95 6 1 15.4727 16.9258 -8.68487
108 6 2 14.8913 16.8799 -9.6193
109 6 2 14.7172 17.0238 -7.85165
110 6 2 15.906 15.9916 -8.48841
96 6 1 16.3941 18.102 -8.79743
98 6 3 17.1848 18.4811 -7.70477
99 6 1 18.1863 19.5307 -7.68351
100 6 1 17.6994 20.7839 -8.06013
101 6 1 18.6334 21.8134 -8.02612
102 6 1 19.5183 21.8304 -6.91451
103 6 1 20.0102 20.5645 -6.50695
104 6 1 19.0577 19.4923 -6.50048
105 6 1 19.5268 18.1907 -5.92861
106 6 3 18.6278 17.4306 -5.43668
107 6 3 20.8475 18.1431 -5.4407
111 6 2 16.9536 20.6922 -8.88582
114 6 2 20.7353 20.631 -5.63437
115 6 2 21.2552 17.2119 -5.19926
112 6 2 18.3274 22.7373 -8.40087
113 6 2 20.2266 22.6455 -6.83471
32 3 1 15.8504 -5.91666 7.07242
45 3 2 14.8466 -5.83205 6.61184
46 3 2 15.8853 -5.60075 8.13017
47 3 2 16.1292 -6.95897 7.15347
33 3 1 16.8034 -5.1104 6.29632
34 3 3 16.7961 -5.31765 5.04249
35 3 3 18.0741 -4.84408 6.88472
36 3 1 18.962 -3.75055 6.56813
41 3 1 20.2554 -4.02894 7.09391
42 3 1 20.8632 -5.41367 6.9344
43 3 3 21.1803 -5.83722 5.78641
44 3 3 21.697 -5.86792 7.95762
40 3 1 21.2264 -2.94541 7.06127
51 3 2 22.1649 -3.09966 7.62921
52 3 2 22.5647 -5.32988 8.14827
37 3 1 18.4994 -2.40972 6.65722
38 3 1 19.4444 -1.41566 6.64968
39 3 1 20.6334 -1.69728 7.23881
48 3 2 17.5823 -2.12186 6.2095
49 3 2 19.0988 -0.390039 6.78455
50 3 2 21.2734 -0.848491 7.4469
55 4 3 5.14636 17.3204 9.16092
11 2 1 -12.1337 -23.3494 12.3798
12 2 1 -11.0113 -22.895 11.5726
13 2 3 -10.8786 -23.3785 10.4507
14 2 3 -9.86747 -22.5778 12.3442
24 2 2 -13.0763 -23.328 11.8031
25 2 2 -12.3441 -22.6435 13.2424
26 2 2 -11.9118 -24.397 12.7198
21 2 1 -7.2903 -23.006 13.5887
22 2 3 -6.55993 -23.778 12.8698
23 2 3 -7.17477 -23.0908 14.9759
31 2 2 -6.34778 -22.6465 15.4706
27 2 2 -10.0098 -20.4404 10.736
20 2 1 -7.76405 -21.5836 12.9896
16 2 1 -9.1645 -20.3854 11.4564
28 2 2 -8.39692 -18.62 10.6454
15 2 1 -8.8447 -21.6348 12.0941
17 2 1 -8.10499 -19.5237 11.12
18 2 1 -7.16511 -19.4362 12.2049
19 2 1 -6.75751 -20.661 12.7111
29 2 2 -6.38067 -18.7159 12.1812
30 2 2 -6.05238 -20.4913 13.4544
1 1 1 18.6256 6.98151 14.7263
2 1 1 19.4949 7.65587 15.507
3 1 1 20.7739 8.15315 14.9747
7 1 2 17.7249 6.69525 15.2448
8 1 2 19.2341 7.8979 16.4974
5 1 4 20.717 9.19785 13.8689
10 1 2 21.4295 9.17017 13.1205
4 1 3 21.8074 8.02794 15.6697
6 1 2 18.8307 6.78387 13.6431
9 1 2 20.3912 10.1617 14.1738
66 4 2 3.4442 16.6736 10.9311
69 4 2 5.82317 20.5623 9.15196
59 4 1 7.67722 21.6082 9.33591
68 4 2 5.12948 16.1831 11.5235
54 4 1 5.21582 17.8247 10.3235
53 4 1 4.42305 16.9785 11.3054
56 4 3 6.43521 18.4545 10.7424
57 4 1 7.29946 19.3631 10.105
58 4 1 6.78973 20.6009 9.6748
60 4 1 9.03777 21.5402 9.76576
62 4 1 8.64729 19.3603 10.5596
67 4 2 4.28131 17.5087 12.3059
63 4 1 9.21639 18.0647 11.0141
61 4 1 9.49217 20.2297 9.80711
64 4 3 9.42753 17.3079 9.96309
65 4 3 10.2545 17.9278 11.9937
72 4 2 9.84527 19.7843 8.89274
73 4 2 10.2426 18.4305 12.8998
70 4 2 7.26304 22.6195 9.29174
71 4 2 9.79193 22.2418 9.37051
ITEM: TIMESTEP
4000
ITEM: NUMBER OF ATOMS
115
ITEM: BOX BOUNDS pp pp pp
-2.8628399999999999e+01 2.8628399999999999e+01
-2.8628399999999999e+01 2.8628399999999999e+01
-2.8628399999999999e+01 2.8628399999999999e+01
ITEM: ATOMS id mol type x y z
74 5 1 12.9455 -12.3007 -13.0143
75 5 1 13.7457 -11.0912 -12.9529
76 5 3 13.9136 -10.5006 -14.0299
77 5 3 14.8975 -11.0603 -12.0605
78 5 1 15.6 -9.89071 -11.8002
87 5 2 11.8969 -12.0671 -13.4414
88 5 2 12.947 -12.6783 -11.9257
89 5 2 13.4111 -13.13 -13.5415
83 5 1 16.9355 -9.90574 -11.1685
84 5 1 17.993 -10.9482 -11.571
85 5 3 17.6697 -12.1498 -11.781
86 5 3 19.2201 -10.8554 -10.8852
94 5 2 19.3359 -11.3217 -9.96533
79 5 1 14.7691 -8.80303 -11.333
80 5 1 15.3918 -7.55904 -10.8952
90 5 2 13.7742 -8.57463 -11.7979
91 5 2 14.6796 -6.84313 -10.5011
81 5 1 16.6334 -7.73073 -10.1977
82 5 1 17.5372 -8.63342 -10.8683
92 5 2 17.0502 -6.87252 -9.58641
93 5 2 18.1429 -8.08757 -11.5401
97 6 3 16.918 18.2151 -9.91501
95 6 1 15.4187 16.9322 -8.65152
108 6 2 14.703 16.9224 -9.52074
109 6 2 14.7822 17.0419 -7.69379
110 6 2 15.9116 15.9809 -8.65982
96 6 1 16.3854 17.9939 -8.78459
98 6 3 17.1843 18.3931 -7.67288
99 6 1 18.0948 19.4513 -7.67052
100 6 1 17.6585 20.7785 -8.0609
101 6 1 18.6556 21.749 -8.02723
102 6 1 19.5784 21.7644 -7.01868
103 6 1 19.9998 20.57 -6.48151
104 6 1 19.033 19.4989 -6.5722
105 6 1 19.5193 18.1996 -5.8906
106 6 3 18.5933 17.4279 -5.43742
107 6 3 20.8622 18.0223 -5.42483
111 6 2 16.9824 20.8871 -8.90587
114 6 2 20.6347 20.6307 -5.6579
115 6 2 21.0027 17.0858 -5.21696
112 6 2 18.3371 22.7927 -8.34278
113 6 2 20.3366 22.5348 -7.07495
32 3 1 15.8503 -5.94886 7.11372
45 3 2 14.8342 -5.83933 6.74283
46 3 2 15.9 -5.6939 8.12327
47 3 2 16.1008 -7.01027 7.0122
33 3 1 16.8034 -5.16798 6.32588
34 3 3 16.8196 -5.32487 5.059
35 3 3 18.0609 -4.7965 6.90016
36 3 1 18.9838 -3.86036 6.4707
41 3 1 20.2748 -4.05011 7.02116
42 3 1 20.8356 -5.43975 6.89991
43 3 3 21.2152 -5.78419 5.76651
44 3 3 21.7128 -5.92939 7.86297
40 3 1 21.217 -2.9154 7.10747
51 3 2 22.1178 -3.12789 7.64327
52 3 2 22.7171 -5.78731 7.82487
37 3 1 18.5149 -2.48963 6.67143
38 3 1 19.51 -1.42705 6.61654
39 3 1 20.7033 -1.60632 7.29864
48 3 2 17.5535 -2.27207 6.1327
49 3 2 19.0965 -0.449973 6.6256
50 3 2 21.3905 -0.78431 7.18828
55 4 3 5.17031 17.3819 9.1352
11 2 1 -12.3147 -23.3754 12.3885
12 2 1 -11.0765 -22.8273 11.5746
13 2 3 -11.0291 -23.3619 10.4415
14 2 3 -9.84952 -22.5736 12.2584
24 2 2 -13.1986 -23.3869 11.7233
25 2 2 -12.5602 -22.7769 13.2697
26 2 2 -12.1329 -24.3588 12.7446
21 2 1 -7.30099 -23.0178 13.5596
22 2 3 -6.66478 -23.7726 12.7857
23 2 3 -7.07192 -23.0849 14.9405
31 2 2 -6.27013 -22.5866 15.3212
27 2 2 -9.99796 -20.1916 10.8329
20 2 1 -7.70783 -21.6652 12.9751
16 2 1 -9.10403 -20.3203 11.4946
28 2 2 -8.46721 -18.473 10.8121
15 2 1 -8.80361 -21.6951 11.9657
17 2 1 -8.14411 -19.3984 11.208
18 2 1 -7.17046 -19.3771 12.1569
19 2 1 -6.73132 -20.6624 12.7557
29 2 2 -6.50546 -18.5584 12.218
30 2 2 -5.84482 -20.5865 13.3476
1 1 1 18.6908 6.8494 14.7243
2 1 1 19.4985 7.66065 15.4401
3 1 1 20.7736 8.23918 15.0021
7 1 2 17.7576 6.5142 15.1585
8 1 2 19.2196 7.93137 16.5112
5 1 4 20.704 9.08639 13.8227
10 1 2 21.3595 8.91167 13.0521
4 1 3 21.7643 8.24708 15.7317
6 1 2 18.9521 6.57014 13.7389
9 1 2 20.1905 10.0307 13.8023
66 4 2 3.36321 16.9442 11.0004
69 4 2 5.85405 20.6353 9.17566
59 4 1 7.73056 21.6049 9.19783
68 4 2 4.89349 16.0112 11.3856
54 4 1 5.11434 17.8814 10.311
53 4 1 4.4172 17.014 11.3288
56 4 3 6.37497 18.4302 10.7221
57 4 1 7.29811 19.3524 10.0834
58 4 1 6.82876 20.6323 9.62579
60 4 1 9.01256 21.562 9.74284
62 4 1 8.68445 19.4238 10.6494
67 4 2 4.45325 17.4863 12.3518
63 4 1 9.40687 18.1406 10.9441
61 4 1 9.5428 20.3323 9.93753
64 4 3 9.46077 17.333 9.95894
65 4 3 10.2658 17.9386 11.9926
72 4 2 9.91328 19.8441 9.01985
73 4 2 10.0907 18.2787 12.8677
70 4 2 7.39602 22.6135 9.06045
71 4 2 9.71498 22.3013 9.53292
ITEM: TIMESTEP
4020
ITEM: NUMBER OF ATOMS
115
ITEM: BOX BOUNDS pp pp pp
-2.8628399999999999e+01 2.8628399999999999e+01
-2.8628399999999999e+01 2.8628399999999999e+01
-2.8628399999999999e+01 2.8628399999999999e+01
ITEM: ATOMS id mol type x y z
74 5 1 12.9018 -12.3371 -12.9844
75 5 1 13.8125 -11.1547 -12.9519
76 5 3 13.8924 -10.5481 -14.0571
77 5 3 14.9494 -11.0061 -12.1242
78 5 1 15.6171 -9.83803 -11.8053
87 5 2 11.9333 -11.934 -13.3388
88 5 2 12.7152 -12.7228 -11.9587
89 5 2 13.3053 -13.192 -13.6128
83 5 1 16.9059 -9.90441 -11.1112
84 5 1 17.9894 -10.9496 -11.4404
85 5 3 17.6755 -12.1007 -11.774
86 5 3 19.2417 -10.8804 -10.9095
94 5 2 19.3731 -11.0518 -9.98251
79 5 1 14.7851 -8.75144 -11.3144
80 5 1 15.3748 -7.56395 -10.9151
90 5 2 13.8268 -8.57521 -11.7585
91 5 2 14.7324 -6.78797 -10.5773
81 5 1 16.5824 -7.71241 -10.194
82 5 1 17.4734 -8.63386 -10.813
92 5 2 16.9896 -6.75796 -9.97798
93 5 2 18.1311 -8.10213 -11.5507
97 6 3 16.8527 18.126 -9.91832
95 6 1 15.3307 16.9903 -8.73287
108 6 2 14.5478 16.9998 -9.60697
109 6 2 14.765 17.0833 -7.79653
110 6 2 15.8322 15.9396 -8.70913
96 6 1 16.3003 18.1074 -8.80399
98 6 3 17.1928 18.3552 -7.75777
99 6 1 18.0889 19.4286 -7.58997
100 6 1 17.6052 20.7916 -8.0246
101 6 1 18.5657 21.8156 -8.04479
102 6 1 19.5407 21.7719 -7.00477
103 6 1 19.9771 20.4677 -6.58045
104 6 1 18.9662 19.449 -6.48841
105 6 1 19.5191 18.0833 -5.93839
106 6 3 18.6816 17.3381 -5.39715
107 6 3 20.8675 17.9365 -5.51546
111 6 2 16.9685 20.8294 -8.8483
114 6 2 20.7248 20.519 -5.75607
115 6 2 21.31 17.014 -5.27227
112 6 2 18.241 22.794 -8.3752
113 6 2 20.2911 22.5214 -7.04516
32 3 1 15.8934 -5.98922 7.14781
45 3 2 14.8861 -5.98497 6.62297
46 3 2 15.8256 -5.69978 8.23152
47 3 2 16.2451 -7.05375 7.21924
33 3 1 16.8129 -5.08154 6.31795
34 3 3 16.8252 -5.29652 5.07952
35 3 3 18.0812 -4.80837 6.87378
36 3 1 19.0257 -3.85285 6.52177
41 3 1 20.3181 -4.02242 7.1017
42 3 1 20.8984 -5.39984 6.86936
43 3 3 21.1792 -5.73138 5.6866
44 3 3 21.722 -5.94431 7.80236
40 3 1 21.2485 -2.94253 7.1467
51 3 2 22.2247 -3.07324 7.50923
52 3 2 22.649 -5.557 7.90817
37 3 1 18.5831 -2.44028 6.55655
38 3 1 19.4316 -1.42832 6.54705
39 3 1 20.6616 -1.66805 7.2263
48 3 2 17.6797 -2.2718 6.04404
49 3 2 18.9301 -0.514825 6.68923
50 3 2 21.3929 -0.84017 7.14917
55 4 3 5.2099 17.3641 9.15841
11 2 1 -12.2914 -23.2861 12.4092
12 2 1 -11.1612 -22.7935 11.6164
13 2 3 -11.1155 -23.2493 10.4932
14 2 3 -9.92958 -22.5624 12.2329
24 2 2 -13.1971 -23.2567 11.7861
25 2 2 -12.3836 -22.6749 13.3268
26 2 2 -11.9982 -24.283 12.8224
21 2 1 -7.35025 -22.9196 13.5295
22 2 3 -6.76267 -23.775 12.8405
23 2 3 -7.07213 -22.9986 14.9049
31 2 2 -6.19467 -22.7104 15.2052
27 2 2 -10.004 -20.2514 10.7581
20 2 1 -7.71571 -21.6483 12.8674
16 2 1 -9.28016 -20.3761 11.515
28 2 2 -8.3887 -18.4582 10.9226
15 2 1 -8.85116 -21.6642 11.8829
17 2 1 -8.2198 -19.4395 11.3425
18 2 1 -7.14416 -19.3792 12.2455
19 2 1 -6.74375 -20.6289 12.7532
29 2 2 -6.328 -18.8072 11.8257
30 2 2 -6.13301 -20.5541 13.6838
1 1 1 18.8372 6.69389 14.7551
2 1 1 19.4969 7.55896 15.5028
3 1 1 20.7439 8.17681 14.9747
7 1 2 17.9467 6.32153 15.0245
8 1 2 19.1417 7.86 16.4661
5 1 4 20.634 8.99826 13.792
10 1 2 21.3941 8.97068 13.1256
4 1 3 21.6924 8.37106 15.7273
6 1 2 19.1986 6.36976 13.777
9 1 2 20.2215 9.93258 13.8213
66 4 2 3.41479 16.8368 10.9297
69 4 2 5.8036 20.6547 9.2592
59 4 1 7.69305 21.5911 9.18291
68 4 2 4.95605 16.0102 11.3233
54 4 1 5.1436 17.8463 10.3014
53 4 1 4.47896 16.9954 11.3088
56 4 3 6.42757 18.4266 10.7314
57 4 1 7.29962 19.3426 10.0731
58 4 1 6.77391 20.6733 9.72947
60 4 1 9.01725 21.5602 9.76823
62 4 1 8.68734 19.3621 10.6407
67 4 2 4.53312 17.3753 12.2746
63 4 1 9.34253 18.0888 10.98
61 4 1 9.56059 20.2501 9.91547
64 4 3 9.51571 17.3189 9.96057
65 4 3 10.3263 18.0436 11.9675
72 4 2 10.2234 19.8048 9.19224
73 4 2 10.3208 18.4529 12.8979
70 4 2 7.42511 22.563 8.86953
71 4 2 9.70445 22.3231 9.53459
ITEM: TIMESTEP
4040
ITEM: NUMBER OF ATOMS
115
ITEM: BOX BOUNDS pp pp pp
-2.8628399999999999e+01 2.8628399999999999e+01
-2.8628399999999999e+01 2.8628399999999999e+01
-2.8628399999999999e+01 2.8628399999999999e+01
ITEM: ATOMS id mol type x y z
74 5 1 12.9885 -12.4341 -12.9358
75 5 1 13.8132 -11.2307 -12.9445
76 5 3 13.8597 -10.5813 -14.0905
77 5 3 14.9741 -11.0838 -12.1232
78 5 1 15.6373 -9.85551 -11.8223
87 5 2 12.0197 -12.3048 -13.4506
88 5 2 12.785 -12.8205 -11.8493
89 5 2 13.5518 -13.2112 -13.469
83 5 1 16.8736 -9.91037 -11.0486
84 5 1 17.9777 -10.9593 -11.5039
85 5 3 17.6232 -12.1285 -11.7401
86 5 3 19.2567 -10.811 -11.0026
94 5 2 19.6196 -11.2101 -10.0821
79 5 1 14.8043 -8.79871 -11.3245
80 5 1 15.3347 -7.57072 -10.9427
90 5 2 13.8268 -8.70715 -11.761
91 5 2 14.6051 -6.9175 -10.5405
81 5 1 16.585 -7.70563 -10.2293
82 5 1 17.4261 -8.62735 -10.7979
92 5 2 16.9903 -6.89796 -9.69654
93 5 2 18.0938 -8.19274 -11.5355
97 6 3 16.9571 18.1113 -9.92773
95 6 1 15.2416 17.0445 -8.69106
108 6 2 14.5413 16.9695 -9.52014
109 6 2 14.5296 17.1019 -7.80907
110 6 2 15.784 16.1202 -8.61226
96 6 1 16.3096 18.1654 -8.85398
98 6 3 17.1694 18.3845 -7.73888
99 6 1 18.152 19.4248 -7.60062
100 6 1 17.6119 20.7154 -7.9504
101 6 1 18.5255 21.7524 -8.02571
102 6 1 19.4806 21.7103 -7.00252
103 6 1 19.9168 20.5051 -6.55307
104 6 1 19.0372 19.4076 -6.47565
105 6 1 19.552 18.097 -5.88445
106 6 3 18.7399 17.2971 -5.38205
107 6 3 20.8988 17.9333 -5.51683
111 6 2 16.8587 20.7114 -8.77784
114 6 2 20.7269 20.5886 -5.82086
115 6 2 21.3999 17.126 -5.1703
112 6 2 18.1286 22.7057 -8.23
113 6 2 20.1352 22.5269 -6.83443
32 3 1 16.028 -5.98955 7.13162
45 3 2 15.056 -6.07843 6.6077
46 3 2 15.9101 -5.59731 8.19312
47 3 2 16.4995 -6.99851 7.17289
33 3 1 16.8469 -5.04682 6.32299
34 3 3 16.7698 -5.22848 5.10004
35 3 3 18.0727 -4.78121 6.9049
36 3 1 19.0263 -3.77461 6.57341
41 3 1 20.3093 -4.02606 7.22599
42 3 1 20.9511 -5.35466 6.88379
43 3 3 21.2093 -5.54678 5.64279
44 3 3 21.7627 -5.97004 7.85425
40 3 1 21.1144 -2.92202 7.11115
51 3 2 22.0229 -2.93709 7.58657
52 3 2 22.695 -5.647 8.0547
37 3 1 18.4979 -2.43668 6.5453
38 3 1 19.4089 -1.35271 6.55895
39 3 1 20.619 -1.6174 7.21922
48 3 2 17.6486 -2.33181 5.9493
49 3 2 19.0037 -0.373803 6.52684
50 3 2 21.2893 -0.803499 7.15294
55 4 3 5.26248 17.277 9.17359
11 2 1 -12.2951 -23.2896 12.4742
12 2 1 -11.1772 -22.783 11.6439
13 2 3 -11.1168 -23.2941 10.5182
14 2 3 -9.97639 -22.5488 12.3561
24 2 2 -13.298 -23.2982 11.9884
25 2 2 -12.3726 -22.7562 13.4419
26 2 2 -11.9804 -24.3918 12.7089
21 2 1 -7.31856 -22.8684 13.424
22 2 3 -6.79657 -23.8547 12.851
23 2 3 -7.04694 -22.9334 14.7837
31 2 2 -6.13661 -22.8715 15.2015
27 2 2 -10.0427 -20.278 10.7908
20 2 1 -7.81228 -21.5952 12.8913
16 2 1 -9.28351 -20.3537 11.5252
28 2 2 -8.68458 -18.3039 11.2244
15 2 1 -8.94041 -21.6061 12.0168
17 2 1 -8.2861 -19.339 11.36
18 2 1 -7.22269 -19.418 12.2953
19 2 1 -6.80758 -20.6472 12.6383
29 2 2 -6.57233 -18.5846 12.3362
30 2 2 -5.87557 -20.7337 13.1801
1 1 1 18.8739 6.58264 14.7252
2 1 1 19.5138 7.46616 15.4834
3 1 1 20.7787 8.08988 15.0165
7 1 2 17.9489 6.16269 15.0895
8 1 2 19.074 7.74724 16.4165
5 1 4 20.6724 8.90583 13.8841
10 1 2 21.506 9.04783 13.2781
4 1 3 21.7092 8.43467 15.7284
6 1 2 19.2568 6.35355 13.7031
9 1 2 20.1119 9.79284 13.9503
66 4 2 3.40126 16.7954 11.0668
69 4 2 5.79049 20.709 9.36656
59 4 1 7.61773 21.5423 9.24344
68 4 2 4.87573 15.9893 11.5029
54 4 1 5.25531 17.7976 10.2723
53 4 1 4.42288 16.9582 11.313
56 4 3 6.43557 18.379 10.718
57 4 1 7.30904 19.3567 10.1456
58 4 1 6.7788 20.6345 9.76685
60 4 1 8.95921 21.5913 9.69767
62 4 1 8.63605 19.3734 10.6467
67 4 2 4.45911 17.4721 12.2965
63 4 1 9.24335 18.0845 11.0244
61 4 1 9.49995 20.3509 9.94419
64 4 3 9.52876 17.339 10.0733
65 4 3 10.288 18.0763 11.8661
72 4 2 9.86002 19.9106 9.03591
73 4 2 10.3069 18.8313 12.6427
70 4 2 7.19396 22.563 9.00011
71 4 2 9.69321 22.3227 9.2761
ITEM: TIMESTEP
4060
ITEM: NUMBER OF ATOMS
115
ITEM: BOX BOUNDS pp pp pp
-2.8628399999999999e+01 2.8628399999999999e+01
-2.8628399999999999e+01 2.8628399999999999e+01
-2.8628399999999999e+01 2.8628399999999999e+01
ITEM: ATOMS id mol type x y z
74 5 1 13.0404 -12.5909 -12.8803
75 5 1 13.7903 -11.1958 -12.911
76 5 3 13.7869 -10.6183 -14.0814
77 5 3 14.9648 -11.0807 -12.1568
78 5 1 15.6276 -9.90298 -11.7148
87 5 2 12.088 -12.6596 -13.4764
88 5 2 12.8185 -12.8384 -11.8694
89 5 2 13.6709 -13.342 -13.2989
83 5 1 16.9343 -9.96077 -10.9993
84 5 1 17.9303 -10.9414 -11.5669
85 5 3 17.5745 -12.12 -11.7173
86 5 3 19.2173 -10.849 -11.0025
94 5 2 19.325 -11.3187 -10.1282
79 5 1 14.7199 -8.79961 -11.3565
80 5 1 15.261 -7.63946 -10.8533
90 5 2 13.8837 -8.7099 -11.9707
91 5 2 14.5944 -6.90506 -10.4314
81 5 1 16.6037 -7.68603 -10.3068
82 5 1 17.4636 -8.68362 -10.8509
92 5 2 16.9818 -6.69681 -10.1118
93 5 2 17.9367 -8.25561 -11.6797
97 6 3 16.9912 18.1783 -9.93885
95 6 1 15.2171 17.169 -8.64727
108 6 2 14.5979 17.1036 -9.61194
109 6 2 14.5273 17.6782 -7.84397
110 6 2 15.411 16.1205 -8.34024
96 6 1 16.3704 18.0803 -8.82472
98 6 3 17.1109 18.3645 -7.58998
99 6 1 18.0446 19.4105 -7.57447
100 6 1 17.5754 20.6402 -7.94242
101 6 1 18.5197 21.6961 -7.98273
102 6 1 19.4267 21.7704 -6.93794
103 6 1 19.9659 20.4716 -6.41794
104 6 1 19.0476 19.364 -6.49821
105 6 1 19.5309 18.1103 -5.9196
106 6 3 18.7419 17.2717 -5.38066
107 6 3 20.8501 17.9389 -5.51236
111 6 2 16.7657 20.6901 -8.63571
114 6 2 20.5273 20.5809 -5.5012
115 6 2 21.1896 16.9864 -5.36726
112 6 2 18.2061 22.6852 -8.29161
113 6 2 20.1512 22.5939 -7.02329
32 3 1 16.0282 -5.97304 7.18805
45 3 2 15.0865 -6.10007 6.84063
46 3 2 16.0443 -5.58044 8.22078
47 3 2 16.5518 -6.97097 7.13348
33 3 1 16.8578 -5.02555 6.29557
34 3 3 16.8453 -5.11236 5.01578
35 3 3 18.0422 -4.72922 6.91032
36 3 1 18.9665 -3.72567 6.65929
41 3 1 20.2975 -3.95885 7.23029
42 3 1 20.9167 -5.33589 6.95263
43 3 3 21.156 -5.45967 5.73361
44 3 3 21.8496 -5.94473 7.85258
40 3 1 21.2345 -2.84238 7.11087
51 3 2 22.2349 -2.92058 7.6111
52 3 2 22.7773 -5.6672 8.17809
37 3 1 18.4791 -2.43326 6.53573
38 3 1 19.4035 -1.39717 6.54208
39 3 1 20.6119 -1.53436 7.23982
48 3 2 17.6405 -2.32571 5.89935
49 3 2 18.9565 -0.391255 6.5787
50 3 2 21.2359 -0.60548 7.21169
55 4 3 5.20538 17.1673 9.10839
11 2 1 -12.2664 -23.3148 12.5592
12 2 1 -11.1886 -22.7387 11.7263
13 2 3 -11.1091 -23.267 10.5766
14 2 3 -9.93997 -22.548 12.3931
24 2 2 -13.2209 -23.3826 11.9916
25 2 2 -12.4368 -22.6692 13.4333
26 2 2 -11.9981 -24.326 12.8806
21 2 1 -7.33766 -22.99 13.5038
22 2 3 -6.75468 -23.8368 12.7878
23 2 3 -6.96904 -22.8963 14.8349
31 2 2 -5.99691 -22.6859 15.0878
27 2 2 -10.1296 -20.2366 10.864
20 2 1 -7.68049 -21.681 12.9264
16 2 1 -9.29036 -20.3618 11.5437
28 2 2 -8.85763 -18.3646 11.1415
15 2 1 -8.92558 -21.5706 12.11
17 2 1 -8.40284 -19.3061 11.4718
18 2 1 -7.28659 -19.3306 12.3256
19 2 1 -6.70999 -20.6879 12.4798
29 2 2 -6.60228 -18.5011 12.0915
30 2 2 -5.78154 -20.7012 13.1055
1 1 1 18.916 6.61535 14.736
2 1 1 19.5418 7.45591 15.5303
3 1 1 20.7791 8.13229 14.9926
7 1 2 17.9843 6.1107 15.053
8 1 2 19.0431 7.61433 16.5431
5 1 4 20.6498 8.95381 13.817
10 1 2 21.4478 8.90112 13.0857
4 1 3 21.5923 8.49564 15.8681
6 1 2 19.2941 6.46026 13.7828
9 1 2 20.1373 9.85654 13.8469
66 4 2 3.47545 16.7392 10.9126
69 4 2 5.67794 20.492 9.21555
59 4 1 7.555 21.5638 9.19876
68 4 2 4.96953 15.9914 11.5241
54 4 1 5.24803 17.6997 10.2489
53 4 1 4.44862 16.9683 11.2647
56 4 3 6.39644 18.3801 10.7763
57 4 1 7.29906 19.3194 10.1457
58 4 1 6.68433 20.5682 9.78946
60 4 1 8.86679 21.5981 9.73546
62 4 1 8.6338 19.4059 10.6549
67 4 2 4.27592 17.6198 12.2257
63 4 1 9.23026 18.1034 10.9781
61 4 1 9.46271 20.3635 9.96204
64 4 3 9.42347 17.2728 10.0554
65 4 3 10.3058 18.2504 11.948
72 4 2 10.0785 19.9733 9.15786
73 4 2 10.1011 18.6877 12.8141
70 4 2 7.23516 22.4434 8.69234
71 4 2 9.55596 22.4383 9.47005
ITEM: TIMESTEP
4080
ITEM: NUMBER OF ATOMS
115
ITEM: BOX BOUNDS pp pp pp
-2.8628399999999999e+01 2.8628399999999999e+01
-2.8628399999999999e+01 2.8628399999999999e+01
-2.8628399999999999e+01 2.8628399999999999e+01
ITEM: ATOMS id mol type x y z
74 5 1 13.1444 -12.5071 -12.8835
75 5 1 13.7356 -11.1588 -12.8982
76 5 3 13.785 -10.7072 -14.0573
77 5 3 14.8612 -11.0892 -12.1561
78 5 1 15.5215 -9.92856 -11.6351
87 5 2 12.1548 -12.5296 -13.3984
88 5 2 13.0389 -12.8617 -11.8277
89 5 2 13.8251 -13.3223 -13.3603
83 5 1 16.8659 -10.0055 -11.0692
84 5 1 17.8357 -10.9848 -11.4964
85 5 3 17.4872 -12.1682 -11.6735
86 5 3 19.2057 -10.8402 -11.0596
94 5 2 19.535 -10.9349 -10.0768
79 5 1 14.702 -8.83179 -11.2278
80 5 1 15.3057 -7.63079 -10.7979
90 5 2 13.7306 -8.71382 -11.6498
91 5 2 14.7322 -6.79071 -10.5368
81 5 1 16.602 -7.69231 -10.3257
82 5 1 17.4094 -8.69676 -10.8553
92 5 2 17.0033 -6.71526 -9.98869
93 5 2 18.1357 -8.25791 -11.5481
97 6 3 17.0052 18.1964 -9.82456
95 6 1 15.1993 17.2523 -8.59169
108 6 2 14.5192 17.2835 -9.48304
109 6 2 14.6131 17.5206 -7.70211
110 6 2 15.5478 16.1911 -8.54748
96 6 1 16.3736 18.151 -8.73177
98 6 3 17.1135 18.2378 -7.58482
99 6 1 17.9817 19.3553 -7.47614
100 6 1 17.5974 20.6553 -7.90557
101 6 1 18.4711 21.6872 -7.92906
102 6 1 19.4244 21.7277 -6.88892
103 6 1 19.8692 20.5095 -6.42862
104 6 1 19.0305 19.2949 -6.52597
105 6 1 19.5197 17.9285 -6.06282
106 6 3 18.7423 17.2135 -5.34445
107 6 3 20.8166 17.9486 -5.52953
111 6 2 16.8701 20.7007 -8.64688
114 6 2 20.5806 20.5673 -5.58423
115 6 2 21.4758 17.1114 -5.60961
112 6 2 18.2134 22.6105 -8.32987
113 6 2 20.1326 22.5801 -6.8154
32 3 1 16.0158 -5.97079 7.09107
45 3 2 14.9897 -6.01105 6.62363
46 3 2 16.0301 -5.75596 8.16382
47 3 2 16.4366 -7.00996 6.95314
33 3 1 16.8421 -4.99687 6.32724
34 3 3 16.823 -5.12416 5.08526
35 3 3 18.096 -4.76865 6.94322
36 3 1 19.0028 -3.71807 6.58887
41 3 1 20.3879 -3.89626 7.2583
42 3 1 20.9756 -5.22398 6.98319
43 3 3 21.1595 -5.50429 5.78968
44 3 3 21.8075 -5.79649 7.84076
40 3 1 21.2077 -2.81036 7.12691
51 3 2 22.2004 -2.86251 7.5933
52 3 2 22.7645 -5.45516 8.02736
37 3 1 18.4653 -2.41055 6.61985
38 3 1 19.4308 -1.40267 6.48831
39 3 1 20.626 -1.59045 7.24759
48 3 2 17.4897 -2.23037 6.11683
49 3 2 19.0167 -0.373087 6.4594
50 3 2 21.366 -0.852565 7.26867
55 4 3 5.2147 17.1502 9.16902
11 2 1 -12.2916 -23.269 12.5784
12 2 1 -11.1442 -22.7408 11.7866
13 2 3 -11.0603 -23.2457 10.6318
14 2 3 -9.99873 -22.581 12.4973
24 2 2 -13.275 -23.0962 11.9826
25 2 2 -12.2938 -22.7322 13.5205
26 2 2 -12.213 -24.3372 12.7687
21 2 1 -7.22765 -22.9543 13.5404
22 2 3 -6.67601 -23.8157 12.8118
23 2 3 -6.92515 -22.9661 14.9224
31 2 2 -6.21904 -22.47 15.4267
27 2 2 -10.2292 -20.3834 11.0209
20 2 1 -7.72673 -21.6966 12.8534
16 2 1 -9.41675 -20.4066 11.7057
28 2 2 -8.77715 -18.413 11.3075
15 2 1 -8.97317 -21.6792 12.0862
17 2 1 -8.44567 -19.3859 11.466
18 2 1 -7.25422 -19.4461 12.1698
19 2 1 -6.82878 -20.6599 12.5452
29 2 2 -6.58646 -18.671 11.9665
30 2 2 -5.83532 -20.6804 12.9429
1 1 1 18.8263 6.58591 14.718
2 1 1 19.5284 7.47732 15.3759
3 1 1 20.7524 8.22859 15.0317
7 1 2 17.981 6.10779 15.1701
8 1 2 19.1225 7.63983 16.3325
5 1 4 20.6701 9.02727 13.8308
10 1 2 21.4639 9.1311 13.2347
4 1 3 21.5988 8.52445 15.9048
6 1 2 19.0331 6.2227 13.7814
9 1 2 19.9153 9.8099 13.825
66 4 2 3.39244 16.6378 10.986
69 4 2 5.68883 20.5393 9.18393
59 4 1 7.50659 21.5013 9.27419
68 4 2 4.97521 16.0587 11.5951
54 4 1 5.22843 17.686 10.2834
53 4 1 4.41203 16.9537 11.3382
56 4 3 6.40692 18.3769 10.7662
57 4 1 7.26132 19.3336 10.1605
58 4 1 6.66957 20.5304 9.74032
60 4 1 8.80687 21.6008 9.74254
62 4 1 8.62203 19.369 10.6399
67 4 2 4.30151 17.5981 12.1993
63 4 1 9.35122 18.131 11.0093
61 4 1 9.40464 20.283 9.93631
64 4 3 9.42076 17.2355 10.1958
65 4 3 10.3128 18.2249 11.9488
72 4 2 9.95453 19.8224 9.15935
73 4 2 10.1781 18.7742 12.7863
70 4 2 7.09565 22.4593 9.14268
71 4 2 9.45774 22.2875 9.32305
ITEM: TIMESTEP
4100
ITEM: NUMBER OF ATOMS
115
ITEM: BOX BOUNDS pp pp pp
-2.8628399999999999e+01 2.8628399999999999e+01
-2.8628399999999999e+01 2.8628399999999999e+01
-2.8628399999999999e+01 2.8628399999999999e+01
ITEM: ATOMS id mol type x y z
74 5 1 13.1096 -12.5779 -12.9541
75 5 1 13.6807 -11.2188 -12.9598
76 5 3 13.7749 -10.6784 -14.1186
77 5 3 14.7873 -11.0031 -11.9923
78 5 1 15.4761 -9.84358 -11.6576
87 5 2 12.1324 -12.6185 -13.5117
88 5 2 13.0417 -12.9355 -11.9095
89 5 2 13.7988 -13.266 -13.4643
83 5 1 16.8237 -9.94853 -11.0935
84 5 1 17.7944 -11.0679 -11.5035
85 5 3 17.4446 -12.2581 -11.6657
86 5 3 19.1083 -10.8477 -11.1007
94 5 2 19.3283 -10.9565 -10.1565
79 5 1 14.6727 -8.8079 -11.0958
80 5 1 15.2309 -7.55769 -10.7936
90 5 2 13.6437 -8.77982 -11.4512
91 5 2 14.6141 -6.84261 -10.228
81 5 1 16.5802 -7.68982 -10.2988
82 5 1 17.4215 -8.62748 -10.9268
92 5 2 16.9853 -6.78375 -9.847
93 5 2 18.1194 -8.21854 -11.6817
97 6 3 16.9882 18.1129 -9.80385
95 6 1 15.1802 17.2113 -8.57228
108 6 2 14.4481 17.3048 -9.35307
109 6 2 14.6618 17.3687 -7.67015
110 6 2 15.5107 16.1699 -8.56339
96 6 1 16.3505 18.1574 -8.69271
98 6 3 17.1597 18.2724 -7.61512
99 6 1 18.0794 19.2871 -7.58936
100 6 1 17.5485 20.5992 -7.92193
101 6 1 18.492 21.6523 -7.97457
102 6 1 19.3699 21.729 -6.90277
103 6 1 19.8492 20.4614 -6.45658
104 6 1 19.0095 19.283 -6.51149
105 6 1 19.5712 18.0106 -5.93056
106 6 3 18.7611 17.1813 -5.39313
107 6 3 20.9248 17.9017 -5.68842
111 6 2 16.9018 20.6913 -8.75457
114 6 2 20.4455 20.5668 -5.57816
115 6 2 21.3728 16.9876 -5.50439
112 6 2 18.185 22.6179 -8.3466
113 6 2 20.0737 22.4964 -6.98021
32 3 1 15.9739 -5.95717 7.00183
45 3 2 14.8943 -5.91837 6.57814
46 3 2 15.9828 -5.67286 8.1098
47 3 2 16.4532 -6.99189 6.89593
33 3 1 16.8374 -4.98635 6.34802
34 3 3 16.7912 -5.0948 5.13442
35 3 3 18.1052 -4.75226 6.91917
36 3 1 18.9927 -3.80265 6.61993
41 3 1 20.2311 -3.9532 7.24625
42 3 1 20.9627 -5.24829 6.9924
43 3 3 21.1323 -5.64358 5.79574
44 3 3 21.8109 -5.71563 7.99381
40 3 1 21.1429 -2.86205 7.18204
51 3 2 22.0746 -3.06363 7.68885
52 3 2 22.7529 -5.46828 8.09536
37 3 1 18.5968 -2.45666 6.625
38 3 1 19.4275 -1.37384 6.55605
39 3 1 20.5772 -1.54974 7.33155
48 3 2 17.6426 -2.27335 6.12929
49 3 2 19.0013 -0.395577 6.52594
50 3 2 21.2897 -0.707352 7.2972
55 4 3 5.29523 17.1397 9.20161
11 2 1 -12.3207 -23.2735 12.6638
12 2 1 -11.1397 -22.7955 11.8085
13 2 3 -11.0362 -23.2002 10.5873
14 2 3 -9.94722 -22.522 12.522
24 2 2 -13.2565 -23.1351 12.0404
25 2 2 -12.4085 -22.7915 13.6551
26 2 2 -12.1721 -24.4006 12.7634
21 2 1 -7.14672 -22.8962 13.5334
22 2 3 -6.59878 -23.8456 12.8469
23 2 3 -6.87675 -22.9781 14.8993
31 2 2 -6.09018 -22.5551 15.3464
27 2 2 -10.3132 -20.3363 11.1022
20 2 1 -7.79465 -21.6877 12.9814
16 2 1 -9.40536 -20.3128 11.7018
28 2 2 -8.72514 -18.4586 10.9418
15 2 1 -8.92065 -21.6168 12.0906
17 2 1 -8.45568 -19.3854 11.3108
18 2 1 -7.23848 -19.4288 12.0918
19 2 1 -6.79723 -20.7265 12.6265
29 2 2 -6.44803 -18.8169 11.6992
30 2 2 -6.01542 -20.6345 13.3146
1 1 1 18.778 6.57389 14.8022
2 1 1 19.4271 7.49454 15.5076
3 1 1 20.6791 8.24033 14.9456
7 1 2 17.8362 6.19449 15.0715
8 1 2 18.9151 7.91972 16.3663
5 1 4 20.6281 9.20252 13.8367
10 1 2 21.5429 9.58531 13.5354
4 1 3 21.5591 8.59217 15.7657
6 1 2 19.3002 6.23428 13.8366
9 1 2 19.8642 9.89044 13.8731
66 4 2 3.47773 16.7727 11.065
69 4 2 5.78504 20.4461 9.30268
59 4 1 7.52131 21.5112 9.25073
68 4 2 5.08644 16.0654 11.6346
54 4 1 5.22142 17.6682 10.2817
53 4 1 4.50296 17.0276 11.4217
56 4 3 6.38832 18.3206 10.8174
57 4 1 7.23693 19.2165 10.0661
58 4 1 6.70328 20.4515 9.71469
60 4 1 8.82617 21.5549 9.7178
62 4 1 8.61152 19.3517 10.5914
67 4 2 4.38107 17.6337 12.328
63 4 1 9.23684 18.0879 11.1051
61 4 1 9.46999 20.2811 9.91017
64 4 3 9.46088 17.1583 10.2726
65 4 3 10.336 18.1989 11.9648
72 4 2 10.0972 19.9319 9.06054
73 4 2 10.4286 18.8078 12.79
70 4 2 7.03427 22.4304 9.02869
71 4 2 9.42138 22.3704 9.57657
ITEM: TIMESTEP
4120
ITEM: NUMBER OF ATOMS
115
ITEM: BOX BOUNDS pp pp pp
-2.8628399999999999e+01 2.8628399999999999e+01
-2.8628399999999999e+01 2.8628399999999999e+01
-2.8628399999999999e+01 2.8628399999999999e+01
ITEM: ATOMS id mol type x y z
74 5 1 13.1747 -12.6352 -12.9339
75 5 1 13.6921 -11.2784 -12.9229
76 5 3 13.7879 -10.6857 -14.0612
77 5 3 14.7473 -11.0517 -12.0277
78 5 1 15.4323 -9.85013 -11.7242
87 5 2 12.2634 -12.6679 -13.6466
88 5 2 12.8877 -13.0069 -11.9044
89 5 2 13.9769 -13.1901 -13.3587
83 5 1 16.7616 -9.99397 -11.1213
84 5 1 17.8118 -11.0201 -11.6003
85 5 3 17.4481 -12.2443 -11.6647
86 5 3 19.1192 -10.9156 -11.0791
94 5 2 19.2863 -11.1421 -10.106
79 5 1 14.6462 -8.75384 -11.0372
80 5 1 15.3176 -7.57257 -10.7926
90 5 2 13.6108 -8.64873 -11.2234
91 5 2 14.7235 -6.79811 -10.3149
81 5 1 16.608 -7.75957 -10.2651
82 5 1 17.3446 -8.70627 -10.9408
92 5 2 16.9666 -6.7544 -10.0304
93 5 2 17.7483 -8.32903 -11.8445
97 6 3 16.9398 17.9602 -9.848
95 6 1 15.167 17.2739 -8.63564
108 6 2 14.4979 17.2283 -9.62638
109 6 2 14.4872 17.5105 -7.76071
110 6 2 15.4396 16.1981 -8.45387
96 6 1 16.3636 18.1137 -8.75401
98 6 3 17.1579 18.2459 -7.60343
99 6 1 18.0748 19.3175 -7.5724
100 6 1 17.5519 20.5529 -8.00703
101 6 1 18.5148 21.6005 -8.1274
102 6 1 19.3838 21.7237 -7.00183
103 6 1 19.9103 20.4408 -6.43344
104 6 1 18.9953 19.3467 -6.4387
105 6 1 19.5769 18.0183 -5.87904
106 6 3 18.7633 17.2231 -5.28078
107 6 3 21.004 17.8361 -5.81435
111 6 2 16.7141 20.6203 -8.73677
114 6 2 20.6177 20.4651 -5.61434
115 6 2 21.3365 16.9632 -5.88612
112 6 2 18.1089 22.5206 -8.44307
113 6 2 20.0477 22.5423 -7.0411
32 3 1 15.8663 -5.98586 7.04241
45 3 2 14.8714 -5.97481 6.69919
46 3 2 15.9049 -5.58887 8.12149
47 3 2 16.2166 -6.98316 7.00399
33 3 1 16.8138 -5.01138 6.29218
34 3 3 16.7746 -5.05024 5.02801
35 3 3 18.0522 -4.71199 6.92606
36 3 1 18.9894 -3.77723 6.60477
41 3 1 20.3587 -3.92806 7.14313
42 3 1 20.9474 -5.28735 7.00311
43 3 3 21.1592 -5.72033 5.83047
44 3 3 21.7366 -5.74503 8.08046
40 3 1 21.2124 -2.85982 7.29639
51 3 2 22.1453 -2.95561 7.83497
52 3 2 22.5908 -5.24783 8.28982
37 3 1 18.4952 -2.45514 6.57728
38 3 1 19.4315 -1.47449 6.59323
39 3 1 20.6038 -1.59667 7.24046
48 3 2 17.619 -2.25273 5.97599
49 3 2 19.0927 -0.464993 6.58812
50 3 2 21.2456 -0.71903 7.08643
55 4 3 5.33043 17.0769 9.20503
11 2 1 -12.2706 -23.1531 12.5974
12 2 1 -11.059 -22.7663 11.8573
13 2 3 -11.0733 -23.1288 10.6692
14 2 3 -9.93455 -22.4982 12.5953
24 2 2 -13.2081 -22.991 12.0467
25 2 2 -12.2937 -22.5885 13.5175
26 2 2 -12.2077 -24.2288 12.7871
21 2 1 -7.28846 -22.9238 13.5926
22 2 3 -6.62974 -23.7497 12.8852
23 2 3 -6.87813 -23.0273 14.8698
31 2 2 -5.98183 -22.6853 15.0637
27 2 2 -10.3029 -20.3629 11.1739
20 2 1 -7.78074 -21.6326 13.0111
16 2 1 -9.37832 -20.3338 11.736
28 2 2 -8.63809 -18.471 10.8732
15 2 1 -8.95176 -21.6538 12.1255
17 2 1 -8.36764 -19.4678 11.2509
18 2 1 -7.24942 -19.4337 12.0523
19 2 1 -6.78913 -20.6174 12.6019
29 2 2 -6.46111 -18.7181 11.7875
30 2 2 -5.87583 -20.5297 13.1695
1 1 1 18.8219 6.58215 14.872
2 1 1 19.4869 7.62302 15.4394
3 1 1 20.6836 8.25251 14.9465
7 1 2 17.8748 6.2362 15.2616
8 1 2 19.0224 8.0631 16.2386
5 1 4 20.4802 9.19143 13.9324
10 1 2 21.2074 9.39977 13.1962
4 1 3 21.5686 8.4205 15.739
6 1 2 19.1591 6.21372 13.9328
9 1 2 19.649 9.80264 13.9099
66 4 2 3.65608 16.5051 11.0922
69 4 2 5.67487 20.4371 9.06762
59 4 1 7.52099 21.5211 9.22794
68 4 2 5.3229 16.0826 11.852
54 4 1 5.28136 17.6562 10.2969
53 4 1 4.62388 16.8953 11.4332
56 4 3 6.49815 18.3199 10.7304
57 4 1 7.26917 19.2187 10.0101
58 4 1 6.65872 20.4854 9.64746
60 4 1 8.80685 21.4993 9.6914
62 4 1 8.61155 19.2713 10.5512
67 4 2 4.38163 17.5731 12.2503
63 4 1 9.34915 18.0887 11.1151
61 4 1 9.37989 20.2604 9.98828
64 4 3 9.40376 17.1264 10.2987
65 4 3 10.3863 18.2532 11.9901
72 4 2 10.1001 19.8467 9.19179
73 4 2 10.3121 18.6915 12.8611
70 4 2 7.03476 22.4288 9.00206
71 4 2 9.46007 22.2079 9.18733
ITEM: TIMESTEP
4140
ITEM: NUMBER OF ATOMS
115
ITEM: BOX BOUNDS pp pp pp
-2.8628399999999999e+01 2.8628399999999999e+01
-2.8628399999999999e+01 2.8628399999999999e+01
-2.8628399999999999e+01 2.8628399999999999e+01
ITEM: ATOMS id mol type x y z
74 5 1 13.3702 -12.7221 -12.9988
75 5 1 13.7702 -11.2803 -12.9165
76 5 3 13.8223 -10.6644 -14.0223
77 5 3 14.8111 -11.0662 -12.0372
78 5 1 15.5025 -9.8994 -11.6301
87 5 2 12.3238 -12.812 -13.4845
88 5 2 13.2195 -13.0526 -11.9867
89 5 2 14.1028 -13.3842 -13.4942
83 5 1 16.7841 -9.96084 -11.1599
84 5 1 17.7952 -10.9816 -11.6088
85 5 3 17.3866 -12.18 -11.6746
86 5 3 19.0508 -10.8964 -11.0721
94 5 2 19.1898 -11.2951 -10.1465
79 5 1 14.6876 -8.8744 -11.068
80 5 1 15.3064 -7.6551 -10.7636
90 5 2 13.7228 -8.78221 -11.4947
91 5 2 14.6845 -6.91701 -10.285
81 5 1 16.6354 -7.81178 -10.2936
82 5 1 17.3523 -8.66516 -10.9376
92 5 2 17.087 -6.91766 -9.85372
93 5 2 17.9633 -8.27542 -11.7571
97 6 3 16.9257 17.8225 -9.80196
95 6 1 15.0465 17.3141 -8.56003
108 6 2 14.5053 17.3087 -9.50689
109 6 2 14.3716 17.7686 -7.75477
110 6 2 15.352 16.276 -8.33551
96 6 1 16.2996 18.1072 -8.73908
98 6 3 17.0748 18.2871 -7.58835
99 6 1 18.0752 19.2825 -7.53003
100 6 1 17.6344 20.5225 -8.0423
101 6 1 18.5724 21.5542 -8.09923
102 6 1 19.3574 21.6132 -6.97665
103 6 1 19.9183 20.4195 -6.61197
104 6 1 18.9873 19.3085 -6.54332
105 6 1 19.5499 18.0724 -5.8743
106 6 3 18.8474 17.2659 -5.23151
107 6 3 20.9279 17.8175 -5.81286
111 6 2 16.9587 20.5517 -8.89009
114 6 2 20.5905 20.5071 -5.71873
115 6 2 21.2557 16.8366 -5.87649
112 6 2 18.3541 22.5198 -8.5492
113 6 2 19.9947 22.4497 -6.8836
32 3 1 15.8506 -5.93501 7.02424
45 3 2 14.9368 -5.92366 6.44717
46 3 2 15.7663 -5.67948 8.07225
47 3 2 16.3004 -6.95548 6.86889
33 3 1 16.7984 -5.05901 6.30246
34 3 3 16.702 -5.08106 4.99518
35 3 3 18.0089 -4.81878 6.94008
36 3 1 19.0218 -3.77508 6.62174
41 3 1 20.3579 -4.00221 7.21399
42 3 1 20.9879 -5.24132 7.04753
43 3 3 21.1443 -5.79188 5.8972
44 3 3 21.6695 -5.82038 8.11503
40 3 1 21.2491 -2.87996 7.25557
51 3 2 22.1782 -2.97765 7.79956
52 3 2 22.6405 -5.49478 8.35316
37 3 1 18.5567 -2.46569 6.68767
38 3 1 19.4574 -1.39319 6.57076
39 3 1 20.6838 -1.57253 7.30159
48 3 2 17.6237 -2.38201 6.34352
49 3 2 19.0716 -0.368479 6.75074
50 3 2 21.3254 -0.765794 7.35778
55 4 3 5.34278 17.1314 9.18901
11 2 1 -12.3907 -23.0218 12.6545
12 2 1 -11.1688 -22.7413 11.8101
13 2 3 -11.0868 -23.2623 10.6543
14 2 3 -9.94799 -22.5542 12.5695
24 2 2 -13.2557 -23.074 12.0417
25 2 2 -12.56 -22.2951 13.5179
26 2 2 -12.3552 -24.0078 13.0913
21 2 1 -7.19492 -22.9417 13.597
22 2 3 -6.62273 -23.6647 12.7705
23 2 3 -6.84696 -22.9661 14.9362
31 2 2 -6.01557 -22.5273 15.261
27 2 2 -10.2436 -20.3415 11.0787
20 2 1 -7.7068 -21.6038 13.0556
16 2 1 -9.37777 -20.3501 11.7095
28 2 2 -8.77861 -18.612 10.7778
15 2 1 -8.97681 -21.5841 12.3526
17 2 1 -8.41111 -19.5101 11.2045
18 2 1 -7.29936 -19.4182 12.0271
19 2 1 -6.84197 -20.6242 12.6026
29 2 2 -6.49167 -18.7929 11.6024
30 2 2 -5.93056 -20.552 13.1686
1 1 1 18.8416 6.62296 14.8139
2 1 1 19.4675 7.62319 15.5043
3 1 1 20.6725 8.20961 14.9685
7 1 2 17.9172 6.24555 15.2493
8 1 2 18.9608 8.10326 16.3178
5 1 4 20.3821 9.25307 13.9523
10 1 2 21.0324 9.31436 13.1505
4 1 3 21.627 8.41535 15.6928
6 1 2 19.2895 6.20629 13.9063
9 1 2 19.7624 10.0706 14.1143
66 4 2 3.62724 16.4337 11.1608
69 4 2 5.74525 20.3852 9.29663
59 4 1 7.50708 21.4886 9.19411
68 4 2 5.26096 15.979 11.778
54 4 1 5.26648 17.6404 10.3198
53 4 1 4.62288 16.8221 11.4431
56 4 3 6.43927 18.2907 10.6749
57 4 1 7.30109 19.187 10.0067
58 4 1 6.74527 20.4046 9.67463
60 4 1 8.8105 21.5882 9.72574
62 4 1 8.54239 19.3583 10.6766
67 4 2 4.4158 17.591 12.2394
63 4 1 9.30014 18.1431 11.0861
61 4 1 9.40285 20.3115 9.98856
64 4 3 9.39286 17.1149 10.3031
65 4 3 10.3361 18.3354 12.0801
72 4 2 10.0531 19.8934 9.22557
73 4 2 10.0109 18.6807 12.9694
70 4 2 6.82712 22.3487 8.9875
71 4 2 9.45654 22.4132 9.4413
ITEM: TIMESTEP
4160
ITEM: NUMBER OF ATOMS
115
ITEM: BOX BOUNDS pp pp pp
-2.8628399999999999e+01 2.8628399999999999e+01
-2.8628399999999999e+01 2.8628399999999999e+01
-2.8628399999999999e+01 2.8628399999999999e+01
ITEM: ATOMS id mol type x y z
74 5 1 13.4068 -12.7647 -12.9899
75 5 1 13.8456 -11.3163 -12.9109
76 5 3 13.8857 -10.6623 -14.015
77 5 3 14.8053 -11.14 -11.9992
78 5 1 15.4722 -9.91469 -11.7028
87 5 2 12.5371 -12.8616 -13.5592
88 5 2 13.1796 -13.1578 -11.9684
89 5 2 14.2994 -13.2535 -13.5559
83 5 1 16.8211 -9.94427 -11.1656
84 5 1 17.7294 -11.037 -11.5871
85 5 3 17.3391 -12.2248 -11.6279
86 5 3 19.0119 -10.8833 -11.081
94 5 2 19.2391 -11.1936 -10.206
79 5 1 14.6375 -8.91458 -11.1222
80 5 1 15.2373 -7.75327 -10.7344
90 5 2 13.6248 -8.82311 -11.4617
91 5 2 14.5642 -7.1153 -10.0764
81 5 1 16.6133 -7.71941 -10.2695
82 5 1 17.4779 -8.60879 -11.057
92 5 2 16.947 -6.66366 -9.99371
93 5 2 17.8681 -8.34128 -11.9668
97 6 3 16.8497 17.7236 -9.77988
95 6 1 14.9619 17.3395 -8.59121
108 6 2 14.3997 17.383 -9.52411
109 6 2 14.4548 17.8743 -7.77477
110 6 2 15.0638 16.3221 -8.18045
96 6 1 16.2302 18.0661 -8.72963
98 6 3 17.0225 18.3248 -7.58142
99 6 1 18.1289 19.2218 -7.59264
100 6 1 17.7011 20.5281 -8.13884
101 6 1 18.5301 21.6375 -8.09576
102 6 1 19.3852 21.6711 -6.96363
103 6 1 19.9796 20.4135 -6.44503
104 6 1 19.0295 19.3123 -6.46899
105 6 1 19.5561 17.9637 -5.89587
106 6 3 18.8059 17.2761 -5.19093
107 6 3 20.8951 17.7584 -5.84073
111 6 2 17.0289 20.5385 -8.94242
114 6 2 20.7055 20.5787 -5.68623
115 6 2 21.4037 16.9146 -5.74545
112 6 2 18.1614 22.6707 -8.37961
113 6 2 20.0417 22.507 -6.85741
32 3 1 15.8533 -5.96925 7.00367
45 3 2 14.8262 -5.97764 6.45235
46 3 2 15.6945 -5.62863 8.05959
47 3 2 16.3254 -7.01269 6.92726
33 3 1 16.7874 -5.03201 6.27515
34 3 3 16.6743 -5.14991 5.02566
35 3 3 18.0854 -4.77785 6.81353
36 3 1 19.0182 -3.74507 6.57638
41 3 1 20.3029 -3.97031 7.19954
42 3 1 20.883 -5.2992 7.07681
43 3 3 21.2059 -5.80733 5.9256
44 3 3 21.6588 -5.8421 8.15279
40 3 1 21.2336 -2.82411 7.22019
51 3 2 22.2471 -2.88331 7.66601
52 3 2 22.6356 -5.69645 8.24149
37 3 1 18.5766 -2.43161 6.73732
38 3 1 19.4554 -1.36051 6.64794
39 3 1 20.7251 -1.50561 7.32729
48 3 2 17.5956 -2.26886 6.27745
49 3 2 19.103 -0.294239 6.53232
50 3 2 21.4445 -0.685133 7.09614
55 4 3 5.29418 17.1196 9.14977
11 2 1 -12.4527 -23.004 12.629
12 2 1 -11.1769 -22.8445 11.8868
13 2 3 -11.111 -23.341 10.736
14 2 3 -10.0103 -22.5761 12.5972
24 2 2 -13.2677 -23.0057 11.8179
25 2 2 -12.6162 -22.1198 13.4127
26 2 2 -12.545 -24.0032 13.1166
21 2 1 -7.07174 -22.8447 13.5674
22 2 3 -6.63563 -23.6754 12.7294
23 2 3 -6.75857 -22.9691 14.9468
31 2 2 -6.1254 -22.2821 15.3734
27 2 2 -10.3613 -20.3525 11.1651
20 2 1 -7.74701 -21.5763 13.1061
16 2 1 -9.42851 -20.379 11.7562
28 2 2 -8.72045 -18.6744 10.6931
15 2 1 -8.96835 -21.631 12.2886
17 2 1 -8.39975 -19.5786 11.1918
18 2 1 -7.25725 -19.5183 11.9844
19 2 1 -6.7729 -20.6869 12.564
29 2 2 -6.53648 -18.7638 11.8142
30 2 2 -5.87483 -20.4636 13.1052
1 1 1 18.8144 6.71322 14.7767
2 1 1 19.4372 7.66477 15.4807
3 1 1 20.6877 8.2726 14.966
7 1 2 17.8708 6.37857 15.1432
8 1 2 18.9115 7.99782 16.3948
5 1 4 20.341 9.28897 13.9615
10 1 2 21.0106 9.44096 13.1809
4 1 3 21.7157 8.43415 15.672
6 1 2 19.1148 6.22867 13.8963
9 1 2 19.8777 10.1353 14.3213
66 4 2 3.57367 16.5693 10.9706
69 4 2 5.70887 20.3438 9.0221
59 4 1 7.52967 21.447 9.19671
68 4 2 5.21769 15.9158 11.5275
54 4 1 5.26754 17.6168 10.3091
53 4 1 4.5909 16.8399 11.381
56 4 3 6.47506 18.2653 10.724
57 4 1 7.27458 19.2025 10.0689
58 4 1 6.67065 20.3972 9.61797
60 4 1 8.69672 21.621 9.86877
62 4 1 8.63445 19.3697 10.6283
67 4 2 4.33124 17.4159 12.3424
63 4 1 9.33573 18.2008 11.0581
61 4 1 9.42392 20.4189 10.0095
64 4 3 9.40599 17.1794 10.3333
65 4 3 10.2018 18.3293 12.0921
72 4 2 9.89768 20.1317 9.09012
73 4 2 9.99606 18.8196 12.9459
70 4 2 6.97091 22.371 8.86442
71 4 2 9.25804 22.3987 9.49516
ITEM: TIMESTEP
4180
ITEM: NUMBER OF ATOMS
115
ITEM: BOX BOUNDS pp pp pp
-2.8628399999999999e+01 2.8628399999999999e+01
-2.8628399999999999e+01 2.8628399999999999e+01
-2.8628399999999999e+01 2.8628399999999999e+01
ITEM: ATOMS id mol type x y z
74 5 1 13.4311 -12.7537 -13.0779
75 5 1 13.7654 -11.2707 -12.8438
76 5 3 13.9285 -10.5982 -13.935
77 5 3 14.8146 -11.1012 -11.9626
78 5 1 15.4656 -9.92414 -11.7215
87 5 2 12.6327 -12.8405 -13.8148
88 5 2 13.1079 -13.3071 -12.1509
89 5 2 14.38 -13.1184 -13.5624
83 5 1 16.7992 -9.96752 -11.1825
84 5 1 17.7434 -11.0461 -11.546
85 5 3 17.3772 -12.2433 -11.6408
86 5 3 19.059 -10.9098 -11.0707
94 5 2 19.3005 -11.1118 -10.1093
79 5 1 14.6365 -8.87946 -11.1229
80 5 1 15.2253 -7.69231 -10.6756
90 5 2 13.5917 -8.8108 -11.5455
91 5 2 14.6977 -6.95757 -10.1398
81 5 1 16.5573 -7.69398 -10.357
82 5 1 17.316 -8.62705 -11.0168
92 5 2 16.9666 -6.75781 -10.1247
93 5 2 17.7699 -8.21048 -11.9938
97 6 3 16.764 17.687 -9.76734
95 6 1 14.8868 17.3026 -8.54207
108 6 2 14.3193 17.3325 -9.51714
109 6 2 14.2848 17.6751 -7.75864
110 6 2 15.0979 16.2471 -8.12161
96 6 1 16.2081 18.031 -8.71384
98 6 3 17.0636 18.3342 -7.66648
99 6 1 18.0651 19.2886 -7.6022
100 6 1 17.6927 20.5315 -8.15125
101 6 1 18.5569 21.6162 -8.02254
102 6 1 19.5062 21.6465 -6.96582
103 6 1 19.8082 20.4203 -6.38638
104 6 1 18.9423 19.3251 -6.4429
105 6 1 19.557 18.0264 -5.86977
106 6 3 18.8088 17.2925 -5.15531
107 6 3 20.9674 17.7042 -5.79408
111 6 2 17.2221 20.4698 -9.12561
114 6 2 20.4232 20.6027 -5.49788
115 6 2 21.2793 16.7437 -5.6351
112 6 2 18.1878 22.5652 -8.38281
113 6 2 20.3255 22.3464 -6.96827
32 3 1 16.047 -6.05525 7.02311
45 3 2 14.977 -6.04661 6.63141
46 3 2 16.0282 -5.81376 8.07834
47 3 2 16.5657 -6.98356 6.84887
33 3 1 16.7918 -4.99904 6.27152
34 3 3 16.7202 -5.14032 5.04478
35 3 3 18.1177 -4.77061 6.74421
36 3 1 19.0243 -3.7116 6.52639
41 3 1 20.251 -3.9769 7.22276
42 3 1 20.8313 -5.32505 7.22721
43 3 3 21.2519 -5.63676 6.0484
44 3 3 21.6403 -5.91171 8.17731
40 3 1 21.2279 -2.91684 7.10741
51 3 2 22.1864 -2.9911 7.71467
52 3 2 22.5934 -5.64738 8.28398
37 3 1 18.498 -2.34042 6.69985
38 3 1 19.4289 -1.32625 6.68048
39 3 1 20.7738 -1.59272 7.18055
48 3 2 17.5401 -2.08258 6.23137
49 3 2 19.0836 -0.346479 6.96439
50 3 2 21.4554 -0.739931 7.16408
55 4 3 5.26292 17.1096 9.12582
11 2 1 -12.5634 -23.0086 12.7313
12 2 1 -11.2303 -22.8146 11.9837
13 2 3 -11.1302 -23.3684 10.8187
14 2 3 -10.0003 -22.4976 12.6953
24 2 2 -13.4151 -23.044 12.0421
25 2 2 -12.6574 -22.1921 13.451
26 2 2 -12.4421 -24.0159 13.2808
21 2 1 -7.20781 -22.9242 13.5421
22 2 3 -6.54155 -23.7164 12.7838
23 2 3 -6.73102 -22.9859 14.8275
31 2 2 -6.09399 -22.3617 15.1823
27 2 2 -10.2089 -20.3955 11.0218
20 2 1 -7.75639 -21.6866 13.0203
16 2 1 -9.35088 -20.4904 11.6916
28 2 2 -8.79479 -18.6855 10.7309
15 2 1 -8.92938 -21.7456 12.236
17 2 1 -8.40529 -19.6102 11.2241
18 2 1 -7.28055 -19.5166 12.014
19 2 1 -6.81343 -20.6448 12.7241
29 2 2 -6.54433 -18.8838 11.5043
30 2 2 -5.9032 -20.4887 13.1861
1 1 1 18.7636 6.70315 14.7712
2 1 1 19.4403 7.60815 15.5212
3 1 1 20.6604 8.28146 14.9703
7 1 2 17.7708 6.30497 15.2215
8 1 2 19.0192 7.86915 16.469
5 1 4 20.3813 9.33299 14.0214
10 1 2 20.8179 9.29441 13.0258
4 1 3 21.6669 8.39379 15.731
6 1 2 19.0479 6.28274 13.7933
9 1 2 19.9441 10.2439 14.2396
66 4 2 3.45814 16.7593 10.9468
69 4 2 5.68552 20.1392 9.17022
59 4 1 7.4182 21.479 9.19405
68 4 2 5.03726 15.9064 11.4749
54 4 1 5.3297 17.5918 10.2623
53 4 1 4.54001 16.9098 11.2913
56 4 3 6.54374 18.1365 10.6868
57 4 1 7.3142 19.1705 10.0768
58 4 1 6.63663 20.3362 9.62965
60 4 1 8.65662 21.6508 9.85027
62 4 1 8.53738 19.4234 10.6956
67 4 2 4.52568 17.4854 12.2204
63 4 1 9.3247 18.2535 11.1116
61 4 1 9.3306 20.4119 10.0077
64 4 3 9.35132 17.2288 10.386
65 4 3 10.2302 18.4556 12.1122
72 4 2 10.0262 20.1458 9.20506
73 4 2 9.92698 18.631 13.0358
70 4 2 6.77289 22.2399 9.17333
71 4 2 9.34594 22.5318 9.65683
ITEM: TIMESTEP
4200
ITEM: NUMBER OF ATOMS
115
ITEM: BOX BOUNDS pp pp pp
-2.8628399999999999e+01 2.8628399999999999e+01
-2.8628399999999999e+01 2.8628399999999999e+01
-2.8628399999999999e+01 2.8628399999999999e+01
ITEM: ATOMS id mol type x y z
74 5 1 13.4941 -12.7391 -13.108
75 5 1 13.7567 -11.3256 -12.8501
76 5 3 13.9576 -10.5964 -13.8843
77 5 3 14.7976 -11.1169 -11.9524
78 5 1 15.4083 -9.86942 -11.6186
87 5 2 12.6713 -12.7921 -13.9463
88 5 2 13.06 -13.1438 -12.2032
89 5 2 14.3794 -13.2907 -13.4972
83 5 1 16.7618 -9.97372 -11.1279
84 5 1 17.7707 -11.0807 -11.4989
85 5 3 17.4252 -12.2866 -11.5865
86 5 3 19.0756 -10.9117 -11.0343
94 5 2 19.2514 -10.9955 -10.0467
79 5 1 14.5583 -8.8638 -11.0955
80 5 1 15.1875 -7.69153 -10.5989
90 5 2 13.5494 -8.72146 -11.564
91 5 2 14.7381 -7.09595 -9.83676
81 5 1 16.5972 -7.68445 -10.2898
82 5 1 17.3448 -8.65387 -11.0516
92 5 2 17.0023 -6.72554 -9.91564
93 5 2 17.9265 -8.2627 -11.9084
97 6 3 16.7606 17.7162 -9.96274
95 6 1 14.9459 17.2748 -8.42622
108 6 2 14.1455 17.4396 -9.20508
109 6 2 14.4945 17.6673 -7.43931
110 6 2 15.1201 16.1487 -8.22036
96 6 1 16.2339 17.991 -8.83696
98 6 3 17.0959 18.2761 -7.73147
99 6 1 18.1232 19.3202 -7.6454
100 6 1 17.7346 20.6368 -8.15239
101 6 1 18.6042 21.655 -7.95972
102 6 1 19.4969 21.6759 -6.82865
103 6 1 19.954 20.416 -6.30025
104 6 1 19.0396 19.3154 -6.42239
105 6 1 19.5536 18.031 -5.77036
106 6 3 18.7897 17.1852 -5.21668
107 6 3 20.9528 17.7718 -5.84211
111 6 2 17.2356 20.6663 -9.14112
114 6 2 20.6455 20.559 -5.4731
115 6 2 21.1537 16.7528 -5.73504
112 6 2 18.224 22.5797 -8.271
113 6 2 20.1655 22.5445 -6.63991
45 3 2 15.0644 -6.1083 6.84117
32 3 1 16.1593 -6.11094 7.04345
46 3 2 16.3435 -5.9838 8.13213
47 3 2 16.5987 -7.03305 6.77745
33 3 1 16.8071 -5.03568 6.26961
34 3 3 16.6148 -5.0972 5.04919
35 3 3 18.0701 -4.74885 6.72598
36 3 1 19.0388 -3.71971 6.60664
41 3 1 20.2768 -3.96807 7.22908
42 3 1 20.8064 -5.34669 7.17919
43 3 3 21.2626 -5.66552 6.05195
44 3 3 21.5757 -5.90203 8.18915
51 3 2 22.2631 -3.2273 7.49114
52 3 2 22.5295 -5.57953 8.50671
40 3 1 21.2349 -3.00774 7.07759
37 3 1 18.5581 -2.35211 6.65767
38 3 1 19.4708 -1.35248 6.68405
39 3 1 20.7475 -1.65523 7.21031
48 3 2 17.6178 -2.10007 6.26976
49 3 2 19.126 -0.388648 6.9446
50 3 2 21.4828 -0.881866 7.07722
55 4 3 5.28766 17.1342 9.0514
69 4 2 5.57932 20.2922 9.30323
59 4 1 7.46326 21.4286 9.24967
72 4 2 9.84638 20.0511 9.22956
70 4 2 6.85966 22.3021 8.93851
71 4 2 9.32806 22.3003 9.39004
11 2 1 -12.5457 -23.0295 12.8142
12 2 1 -11.2895 -22.768 12.0289
13 2 3 -11.1392 -23.3959 10.9036
14 2 3 -10.0864 -22.5178 12.7246
24 2 2 -13.333 -22.9253 11.9973
26 2 2 -12.5849 -24.0271 13.3049
21 2 1 -7.28375 -23.058 13.554
22 2 3 -6.57721 -23.7838 12.7718
23 2 3 -6.72486 -23.0332 14.8509
31 2 2 -5.80956 -22.6264 15.009
25 2 2 -12.6313 -22.2127 13.5367
27 2 2 -10.2466 -20.4898 10.9837
20 2 1 -7.77487 -21.7472 12.9704
16 2 1 -9.37092 -20.5062 11.6379
28 2 2 -8.63881 -18.7847 10.586
15 2 1 -8.99089 -21.7467 12.2231
17 2 1 -8.33977 -19.645 11.1759
18 2 1 -7.20352 -19.4869 12.0275
19 2 1 -6.78268 -20.6643 12.7483
29 2 2 -6.50097 -18.7406 11.6609
30 2 2 -6.0212 -20.4694 13.4476
1 1 1 18.7496 6.70241 14.8469
2 1 1 19.4645 7.60181 15.5397
3 1 1 20.6709 8.28291 14.9393
7 1 2 17.8996 6.19555 15.283
5 1 4 20.505 9.26147 13.9972
10 1 2 21.0811 9.30639 13.1333
4 1 3 21.6364 8.44491 15.7079
6 1 2 19.0882 6.35472 13.9468
9 1 2 20.1495 10.2301 14.3797
66 4 2 3.41076 16.9402 10.8514
68 4 2 4.80815 15.935 11.5717
54 4 1 5.30119 17.6198 10.1796
53 4 1 4.42371 17.0061 11.2803
56 4 3 6.51379 18.0664 10.6782
57 4 1 7.30654 19.1389 10.0796
58 4 1 6.63938 20.3439 9.63308
60 4 1 8.6842 21.603 9.83263
62 4 1 8.56294 19.3767 10.6801
67 4 2 4.39282 17.5859 12.1793
63 4 1 9.29809 18.1935 11.1537
61 4 1 9.37207 20.365 10.1365
64 4 3 9.37846 17.1705 10.4153
65 4 3 10.2413 18.3807 12.136
73 4 2 9.96479 18.8265 12.9648
8 1 2 19.0788 7.87994 16.5369
ITEM: TIMESTEP
4220
ITEM: NUMBER OF ATOMS
115
ITEM: BOX BOUNDS pp pp pp
-2.8628399999999999e+01 2.8628399999999999e+01
-2.8628399999999999e+01 2.8628399999999999e+01
-2.8628399999999999e+01 2.8628399999999999e+01
ITEM: ATOMS id mol type x y z
74 5 1 13.4621 -12.793 -13.0853
75 5 1 13.827 -11.3397 -12.9211
76 5 3 13.9225 -10.6479 -13.9835
77 5 3 14.8066 -11.1496 -11.9186
78 5 1 15.4423 -9.93048 -11.5318
87 5 2 12.5916 -12.855 -13.7752
88 5 2 13.1951 -13.2509 -12.1352
89 5 2 14.3229 -13.3535 -13.5679
83 5 1 16.8003 -9.97147 -11.0581
84 5 1 17.7942 -11.0686 -11.4582
85 5 3 17.4203 -12.2659 -11.563
86 5 3 19.077 -10.895 -10.9653
94 5 2 19.4576 -10.9849 -10.0321
79 5 1 14.6398 -8.82899 -10.9623
80 5 1 15.2389 -7.6491 -10.6448
90 5 2 13.6201 -8.71313 -11.2429
91 5 2 14.7289 -6.73843 -10.291
81 5 1 16.5949 -7.8099 -10.247
82 5 1 17.3943 -8.70636 -10.936
92 5 2 17.0247 -6.86861 -9.92234
93 5 2 17.9896 -8.41284 -11.7661
97 6 3 16.6971 17.7278 -10.0246
95 6 1 14.9925 17.2558 -8.33418
108 6 2 14.1954 17.1922 -9.03954
109 6 2 14.6317 17.7496 -7.5069
110 6 2 15.2231 16.2032 -8.04294
96 6 1 16.2743 17.9092 -8.84119
98 6 3 17.1898 18.3016 -7.76264
99 6 1 18.1997 19.2545 -7.64734
100 6 1 17.7766 20.53 -8.06559
101 6 1 18.7247 21.6132 -7.91025
102 6 1 19.3375 21.6862 -6.72143
103 6 1 19.9367 20.4221 -6.38322
104 6 1 19.0391 19.2959 -6.4871
105 6 1 19.5266 18.0384 -5.80377
106 6 3 18.826 17.1398 -5.32143
107 6 3 20.8758 17.7825 -5.80321
111 6 2 17.0959 20.5738 -8.89335
114 6 2 20.549 20.4988 -5.51407
115 6 2 21.214 16.848 -6.13755
112 6 2 18.4907 22.6468 -8.28192
113 6 2 19.8792 22.6092 -6.54274
45 3 2 15.0903 -6.06031 6.83749
32 3 1 16.1199 -6.16271 7.11978
46 3 2 16.1997 -6.01627 8.2532
47 3 2 16.4519 -7.19793 6.90872
33 3 1 16.8187 -5.0378 6.32033
34 3 3 16.553 -5.07734 5.06325
35 3 3 18.1096 -4.79328 6.78727
36 3 1 18.946 -3.71205 6.60136
41 3 1 20.2178 -4.02534 7.19574
42 3 1 20.7691 -5.40468 7.07308
43 3 3 21.3662 -5.72836 5.9799
44 3 3 21.4699 -5.84168 8.18268
51 3 2 22.2267 -3.12359 7.50278
52 3 2 22.4165 -5.65988 8.33271
40 3 1 21.2437 -2.95691 7.11443
37 3 1 18.5155 -2.38082 6.75133
38 3 1 19.5392 -1.37288 6.71597
39 3 1 20.769 -1.63028 7.25529
48 3 2 17.7218 -2.12343 6.10408
49 3 2 19.2522 -0.355606 6.82022
50 3 2 21.4506 -0.874624 7.14694
55 4 3 5.33442 17.2364 9.11294
69 4 2 5.76819 20.4042 9.15208
59 4 1 7.52734 21.4654 9.22296
72 4 2 10.3158 20.0805 9.63705
70 4 2 6.93505 22.3978 9.04854
71 4 2 9.47974 22.3518 9.69896
11 2 1 -12.4251 -23.012 12.8826
12 2 1 -11.2619 -22.7742 12.0611
13 2 3 -11.1293 -23.4791 10.9937
14 2 3 -10.0953 -22.4966 12.7562
24 2 2 -13.3295 -22.8764 12.2492
26 2 2 -12.4473 -23.9546 13.3543
21 2 1 -7.3112 -23.047 13.6179
22 2 3 -6.7019 -23.7561 12.7752
23 2 3 -6.74432 -23.1351 14.9033
31 2 2 -5.92721 -22.5534 15.096
25 2 2 -12.4046 -22.2664 13.7117
27 2 2 -10.2148 -20.5241 10.8307
20 2 1 -7.85138 -21.7591 13.0472
16 2 1 -9.31936 -20.5301 11.501
28 2 2 -8.40434 -18.7518 10.6508
15 2 1 -9.00169 -21.7211 12.223
17 2 1 -8.23195 -19.6726 11.1795
18 2 1 -7.18285 -19.5481 12.128
19 2 1 -6.82616 -20.7761 12.7113
29 2 2 -6.42024 -18.8244 11.8379
30 2 2 -6.00311 -20.6201 13.3628
1 1 1 18.8271 6.63429 14.903
2 1 1 19.5325 7.5174 15.5573
3 1 1 20.6509 8.20391 14.9503
7 1 2 17.9503 6.29922 15.3202
5 1 4 20.4702 9.25967 13.9506
10 1 2 21.1174 9.17152 13.1435
4 1 3 21.6872 8.50392 15.6339
6 1 2 19.0927 6.34609 13.8976
9 1 2 20.1919 10.213 14.2935
66 4 2 3.32878 17.0553 10.9108
68 4 2 4.60511 16.0699 11.5464
54 4 1 5.31358 17.6355 10.222
53 4 1 4.36711 17.0537 11.268
56 4 3 6.51594 18.1753 10.6352
57 4 1 7.27622 19.1753 10.0544
58 4 1 6.66262 20.4582 9.73567
60 4 1 8.77575 21.534 9.83638
62 4 1 8.53178 19.3132 10.7056
67 4 2 4.36315 17.6374 12.2238
63 4 1 9.23075 18.0711 11.2329
61 4 1 9.37186 20.298 10.1261
64 4 3 9.50413 17.144 10.3873
65 4 3 10.1958 18.3925 12.1644
73 4 2 10.0375 19.2314 12.7291
8 1 2 19.1335 7.88358 16.4834
ITEM: TIMESTEP
4240
ITEM: NUMBER OF ATOMS
115
ITEM: BOX BOUNDS pp pp pp
-2.8628399999999999e+01 2.8628399999999999e+01
-2.8628399999999999e+01 2.8628399999999999e+01
-2.8628399999999999e+01 2.8628399999999999e+01
ITEM: ATOMS id mol type x y z
74 5 1 13.3552 -12.7869 -12.9985
75 5 1 13.861 -11.3677 -12.9165
76 5 3 13.9673 -10.7029 -13.9776
77 5 3 14.8111 -11.1939 -11.8783
78 5 1 15.4468 -10.015 -11.4735
87 5 2 12.4305 -12.9023 -13.554
88 5 2 13.1359 -13.1635 -11.9563
89 5 2 14.0608 -13.3773 -13.5566
83 5 1 16.7883 -10.0247 -10.9959
84 5 1 17.7543 -11.1044 -11.3555
85 5 3 17.3287 -12.2344 -11.5833
86 5 3 19.0977 -10.9319 -11.014
94 5 2 19.6318 -11.4004 -10.2234
79 5 1 14.6601 -8.93889 -10.8982
80 5 1 15.2717 -7.73039 -10.6555
90 5 2 13.6744 -8.77047 -11.3336
91 5 2 14.6826 -7.01464 -10.1073
81 5 1 16.6292 -7.74702 -10.1762
82 5 1 17.3994 -8.669 -10.8786
92 5 2 17.0455 -6.86054 -9.79249
93 5 2 17.7974 -8.31216 -11.7864
97 6 3 16.7027 17.764 -9.91125
95 6 1 15.1046 17.2493 -8.3235
108 6 2 14.3744 17.0835 -9.14416
109 6 2 14.5757 17.8156 -7.55891
110 6 2 15.4444 16.2838 -8.01052
96 6 1 16.2962 18.0379 -8.74504
98 6 3 17.3093 18.2388 -7.82916
99 6 1 18.2408 19.2809 -7.78611
100 6 1 17.7408 20.5483 -8.18887
101 6 1 18.6708 21.6057 -8.05754
102 6 1 19.3259 21.637 -6.80566
103 6 1 19.7933 20.3904 -6.37148
104 6 1 18.9729 19.2672 -6.54885
105 6 1 19.54 18.0082 -5.88877
106 6 3 18.7502 17.1501 -5.40721
107 6 3 20.9109 17.763 -5.77264
111 6 2 17.0762 20.6343 -9.05326
114 6 2 20.4166 20.3711 -5.42392
115 6 2 21.2411 17.037 -6.32201
112 6 2 18.2867 22.5169 -8.35962
113 6 2 20.0442 22.4636 -6.71367
45 3 2 14.9694 -6.08149 6.93608
32 3 1 16.0439 -6.11453 7.15849
46 3 2 16.2553 -6.02204 8.28847
47 3 2 16.4265 -7.14524 6.91385
33 3 1 16.7371 -5.08139 6.40297
34 3 3 16.6107 -5.01724 5.14815
35 3 3 18.1039 -4.77085 6.83064
36 3 1 19.0035 -3.70664 6.53496
41 3 1 20.3227 -3.96305 7.09787
42 3 1 20.8749 -5.35536 7.05505
43 3 3 21.431 -5.81934 6.02569
44 3 3 21.4392 -5.84979 8.18115
51 3 2 22.1785 -3.00168 7.66734
52 3 2 22.4195 -5.59165 8.40718
40 3 1 21.2176 -2.90099 7.20762
37 3 1 18.5808 -2.40684 6.77944
38 3 1 19.5045 -1.3389 6.61944
39 3 1 20.6978 -1.60542 7.31409
48 3 2 17.4645 -2.14597 6.5498
49 3 2 19.0485 -0.374562 6.61643
50 3 2 21.4562 -0.872514 7.26248
55 4 3 5.20032 17.2594 9.06171
69 4 2 5.7372 20.5877 9.3518
59 4 1 7.59835 21.5321 9.32346
72 4 2 10.114 19.9157 9.58033
70 4 2 7.14489 22.4945 9.15226
71 4 2 9.6281 22.181 9.50788
11 2 1 -12.3997 -22.9223 12.9404
12 2 1 -11.2238 -22.7378 12.0189
13 2 3 -11.1672 -23.5522 11.0644
14 2 3 -10.0435 -22.4168 12.6644
24 2 2 -13.3618 -23.0663 12.4394
26 2 2 -12.1031 -23.7627 13.6666
21 2 1 -7.41039 -23.0647 13.5919
22 2 3 -6.78669 -23.8078 12.8124
23 2 3 -6.87373 -23.1652 14.9187
31 2 2 -6.0392 -22.6485 15.2378
25 2 2 -12.5411 -22.0749 13.6212
27 2 2 -10.0719 -20.55 10.7222
20 2 1 -7.92368 -21.7386 13.149
16 2 1 -9.26923 -20.5039 11.4679
28 2 2 -8.38644 -18.7679 10.6688
15 2 1 -8.96382 -21.728 12.2051
17 2 1 -8.21308 -19.7016 11.1545
18 2 1 -7.19817 -19.6277 12.1765
19 2 1 -6.89117 -20.8644 12.7566
29 2 2 -6.33287 -19.068 11.8797
30 2 2 -5.98999 -20.7632 13.3579
1 1 1 18.7924 6.7139 14.9892
2 1 1 19.5357 7.64478 15.5073
3 1 1 20.6894 8.32184 14.923
7 1 2 18.0029 6.20546 15.525
5 1 4 20.4073 9.25415 13.8595
10 1 2 21.07 9.40316 13.0566
4 1 3 21.76 8.59143 15.6635
6 1 2 19.0217 6.32265 13.9541
9 1 2 19.9106 10.1131 14.0838
66 4 2 3.3233 16.9103 10.6482
68 4 2 4.69906 16.0257 11.3673
54 4 1 5.22056 17.7519 10.1905
53 4 1 4.30223 16.9933 11.1517
56 4 3 6.49217 18.2156 10.6784
57 4 1 7.26914 19.1951 10.0106
58 4 1 6.76794 20.5196 9.7154
60 4 1 8.86593 21.5225 9.87753
62 4 1 8.49652 19.2764 10.692
67 4 2 4.19846 17.4986 12.2082
63 4 1 9.27669 18.1257 11.1789
61 4 1 9.3994 20.2832 10.2536
64 4 3 9.58513 17.1956 10.3121
65 4 3 10.2459 18.5242 12.1134
73 4 2 10.024 19.2385 12.8359
8 1 2 19.2219 8.00981 16.4776
ITEM: TIMESTEP
4260
ITEM: NUMBER OF ATOMS
115
ITEM: BOX BOUNDS pp pp pp
-2.8628399999999999e+01 2.8628399999999999e+01
-2.8628399999999999e+01 2.8628399999999999e+01
-2.8628399999999999e+01 2.8628399999999999e+01
ITEM: ATOMS id mol type x y z
74 5 1 13.3322 -12.7282 -12.9192
75 5 1 13.8217 -11.3446 -12.8378
76 5 3 14.0651 -10.8396 -13.987
77 5 3 14.7745 -11.192 -11.8172
78 5 1 15.427 -9.96986 -11.4848
87 5 2 12.4671 -12.8311 -13.6216
88 5 2 13.0288 -13.1352 -11.8783
89 5 2 14.1089 -13.4655 -13.3973
83 5 1 16.8173 -9.97169 -10.9635
84 5 1 17.8048 -11.063 -11.3822
85 5 3 17.3392 -12.1933 -11.5673
86 5 3 19.1088 -11.0385 -11.0785
94 5 2 19.4336 -11.5314 -10.2706
79 5 1 14.6205 -8.96499 -10.9029
80 5 1 15.2331 -7.74646 -10.6046
90 5 2 13.5622 -8.83625 -11.1992
91 5 2 14.6907 -6.88595 -10.2214
81 5 1 16.6024 -7.81637 -10.1498
82 5 1 17.385 -8.71456 -10.8633
92 5 2 17.0712 -6.91782 -10.0436
93 5 2 17.9619 -8.26035 -11.7033
97 6 3 16.804 17.805 -9.95385
95 6 1 15.1475 17.1991 -8.34683
108 6 2 14.375 17.2385 -9.14756
109 6 2 14.6927 17.6544 -7.3829
110 6 2 15.386 16.1068 -8.19448
96 6 1 16.3378 17.9766 -8.80135
98 6 3 17.2622 18.2072 -7.85032
99 6 1 18.2817 19.2269 -7.81161
100 6 1 17.832 20.4932 -8.2532
101 6 1 18.5605 21.6302 -8.0823
102 6 1 19.3681 21.6294 -6.91921
103 6 1 19.8372 20.4222 -6.37473
104 6 1 19.1579 19.2204 -6.67303
105 6 1 19.5253 17.9596 -5.90377
106 6 3 18.6821 17.1333 -5.36707
107 6 3 20.9159 17.7748 -5.79315
111 6 2 17.1218 20.5 -9.09677
114 6 2 20.1829 20.5723 -5.40619
115 6 2 21.4315 17.0577 -6.19394
112 6 2 18.2706 22.5454 -8.48548
113 6 2 20.116 22.4546 -6.85848
45 3 2 14.9517 -6.04694 6.91539
32 3 1 16.0626 -6.09061 7.15865
46 3 2 16.1845 -6.04998 8.25253
47 3 2 16.4079 -7.08023 6.82625
33 3 1 16.8245 -5.08332 6.38263
34 3 3 16.5634 -4.98848 5.17043
35 3 3 18.1655 -4.76537 6.77657
36 3 1 19.0546 -3.72308 6.53653
41 3 1 20.3583 -3.96111 7.13546
42 3 1 20.9757 -5.36563 7.05593
43 3 3 21.4838 -5.88965 6.02179
44 3 3 21.5565 -5.81352 8.20778
51 3 2 22.1026 -2.99853 7.86313
52 3 2 22.5554 -5.57537 8.42604
40 3 1 21.2193 -2.85991 7.25847
37 3 1 18.5187 -2.42385 6.74143
38 3 1 19.4191 -1.37072 6.65283
39 3 1 20.6977 -1.48912 7.25384
48 3 2 17.5927 -2.24602 6.27066
49 3 2 18.8767 -0.441832 6.84536
50 3 2 21.3886 -0.661298 7.25681
55 4 3 5.18147 17.3062 9.00112
69 4 2 5.79077 20.3746 9.33955
59 4 1 7.69432 21.4998 9.3066
72 4 2 10.2357 19.9704 9.38116
70 4 2 7.21051 22.4325 9.29751
71 4 2 9.622 22.28 9.4676
11 2 1 -12.4537 -22.8671 12.9812
12 2 1 -11.3077 -22.7189 12.0675
13 2 3 -11.22 -23.5739 11.1569
14 2 3 -10.1539 -22.3588 12.7262
24 2 2 -13.3391 -23.1078 12.4183
26 2 2 -12.1575 -23.5804 13.802
21 2 1 -7.37982 -23.051 13.6268
22 2 3 -6.81581 -23.8614 12.8565
23 2 3 -6.94376 -23.2053 14.9186
31 2 2 -6.01416 -22.872 15.1095
25 2 2 -12.7058 -21.9394 13.4513
27 2 2 -10.0752 -20.5602 10.8942
20 2 1 -7.86462 -21.7268 13.1056
16 2 1 -9.28129 -20.5679 11.5231
28 2 2 -8.55374 -18.7806 10.7473
15 2 1 -8.98832 -21.8014 12.1988
17 2 1 -8.21136 -19.7276 11.1797
18 2 1 -7.19944 -19.5754 12.184
19 2 1 -6.84886 -20.8021 12.7823
29 2 2 -6.43803 -18.8574 12.0439
30 2 2 -6.02694 -20.6421 13.5091
1 1 1 18.8091 6.7609 15.0113
2 1 1 19.5569 7.68127 15.625
3 1 1 20.7166 8.31414 14.9009
7 1 2 17.977 6.29864 15.5074
5 1 4 20.5149 9.27797 13.8613
10 1 2 21.2284 9.38537 13.149
4 1 3 21.7889 8.65814 15.5713
6 1 2 19.1689 6.29969 14.1017
9 1 2 19.9142 10.139 13.9822
66 4 2 3.29932 17.0268 10.7612
68 4 2 4.54139 15.8393 11.1035
54 4 1 5.17492 17.7339 10.1728
53 4 1 4.30966 16.9695 11.1057
56 4 3 6.36045 18.297 10.6456
57 4 1 7.31782 19.2324 10.1079
58 4 1 6.799 20.4732 9.75925
60 4 1 8.91368 21.5484 9.86113
62 4 1 8.62719 19.3305 10.7972
67 4 2 4.49495 17.3375 12.1255
63 4 1 9.33707 18.1491 11.2135
61 4 1 9.50441 20.2798 10.1279
64 4 3 9.61837 17.2168 10.3446
65 4 3 10.362 18.4421 12.0621
73 4 2 10.165 18.914 12.9181
8 1 2 19.2007 8.07562 16.5818
ITEM: TIMESTEP
4280
ITEM: NUMBER OF ATOMS
115
ITEM: BOX BOUNDS pp pp pp
-2.8628399999999999e+01 2.8628399999999999e+01
-2.8628399999999999e+01 2.8628399999999999e+01
-2.8628399999999999e+01 2.8628399999999999e+01
ITEM: ATOMS id mol type x y z
74 5 1 13.2865 -12.6902 -12.8742
75 5 1 13.8797 -11.3011 -12.8595
76 5 3 14.0916 -10.7735 -13.9706
77 5 3 14.7667 -11.1176 -11.8128
78 5 1 15.541 -9.89267 -11.5437
87 5 2 12.4887 -12.747 -13.6208
88 5 2 12.8887 -12.8751 -11.8215
89 5 2 13.9626 -13.5577 -13.1045
83 5 1 16.8949 -9.9783 -10.9873
84 5 1 17.8136 -11.0671 -11.4806
85 5 3 17.4048 -12.2508 -11.5304
86 5 3 19.1734 -11.0675 -10.9684
94 5 2 19.293 -11.505 -10.1112
79 5 1 14.6386 -8.9492 -10.9788
80 5 1 15.2154 -7.71483 -10.6756
90 5 2 13.6382 -8.85342 -11.4283
91 5 2 14.6168 -7.09516 -10.1583
81 5 1 16.5214 -7.78061 -10.144
82 5 1 17.4089 -8.69914 -10.7414
92 5 2 16.9706 -6.85819 -9.69136
93 5 2 18.0311 -8.23671 -11.487
97 6 3 16.8411 17.7217 -10.0377
95 6 1 15.1168 17.2564 -8.39559
108 6 2 14.3682 17.2326 -9.19715
109 6 2 14.7357 17.7755 -7.51981
110 6 2 15.3262 16.2392 -8.07334
96 6 1 16.4048 17.9824 -8.83496
98 6 3 17.2465 18.2592 -7.73642
99 6 1 18.2226 19.2092 -7.77648
100 6 1 17.8549 20.4722 -8.33446
101 6 1 18.6961 21.5917 -8.13382
102 6 1 19.3586 21.6809 -6.93186
103 6 1 19.8924 20.433 -6.44261
104 6 1 19.0685 19.252 -6.60874
105 6 1 19.5603 17.9878 -5.97728
106 6 3 18.7121 17.2333 -5.44137
107 6 3 20.9006 17.7533 -5.78421
111 6 2 17.5175 20.4413 -9.35777
114 6 2 20.4187 20.5547 -5.52751
115 6 2 21.3923 16.844 -6.0769
112 6 2 18.189 22.5121 -8.39836
113 6 2 19.8787 22.6266 -6.746
45 3 2 15.134 -6.16765 6.91631
32 3 1 16.1663 -6.14451 7.14816
46 3 2 16.2048 -6.0605 8.20005
47 3 2 16.5104 -7.1492 6.90286
33 3 1 16.8563 -5.02284 6.37643
34 3 3 16.5587 -5.05221 5.17447
35 3 3 18.234 -4.80696 6.782
36 3 1 19.0542 -3.76269 6.53434
41 3 1 20.3165 -3.92726 7.16395
42 3 1 21.0733 -5.3219 7.08207
43 3 3 21.4057 -5.92505 6.01117
44 3 3 21.5864 -5.77211 8.24922
51 3 2 22.1087 -2.92388 7.80649
52 3 2 22.5283 -5.63604 8.43712
40 3 1 21.1485 -2.82328 7.29485
37 3 1 18.5056 -2.47102 6.71741
38 3 1 19.3611 -1.33777 6.78832
39 3 1 20.5618 -1.56935 7.31887
48 3 2 17.4793 -2.2082 6.40007
49 3 2 18.9558 -0.291942 6.78806
50 3 2 21.265 -0.710613 7.18153
55 4 3 5.17086 17.4238 8.91774
69 4 2 5.78153 20.3132 9.2342
59 4 1 7.6121 21.4714 9.33051
72 4 2 9.88716 19.7855 9.07591
70 4 2 7.18385 22.4298 9.07686
71 4 2 9.64485 22.2644 9.42039
11 2 1 -12.5547 -22.8488 13.0279
12 2 1 -11.3311 -22.7841 12.1246
13 2 3 -11.229 -23.6248 11.1753
14 2 3 -10.1403 -22.2872 12.8199
24 2 2 -13.4868 -22.8659 12.3827
26 2 2 -12.4145 -23.7389 13.7441
21 2 1 -7.38313 -23.0215 13.6396
22 2 3 -6.90952 -23.8533 12.797
23 2 3 -6.9666 -23.1202 14.9718
31 2 2 -6.05766 -22.7682 15.3534
25 2 2 -12.6523 -21.8386 13.6072
27 2 2 -10.0088 -20.5849 10.7194
20 2 1 -7.85907 -21.6914 13.1566
16 2 1 -9.18767 -20.5983 11.5053
28 2 2 -8.40996 -18.8251 10.7046
15 2 1 -8.98012 -21.7313 12.2111
17 2 1 -8.19176 -19.6739 11.2599
18 2 1 -7.2874 -19.4833 12.2703
19 2 1 -6.84069 -20.7204 12.8445
29 2 2 -6.63275 -18.6784 12.0748
30 2 2 -6.03248 -20.5846 13.5605
1 1 1 18.847 6.7583 15.0894
2 1 1 19.5763 7.7718 15.6359
3 1 1 20.6906 8.41705 14.9208
7 1 2 18.0338 6.32315 15.6674
5 1 4 20.4893 9.28131 13.8285
10 1 2 21.31 9.36201 13.1592
4 1 3 21.82 8.56376 15.5336
6 1 2 18.9757 6.33674 14.1604
9 1 2 19.9378 10.1567 13.9904
66 4 2 3.28308 16.9542 10.7383
68 4 2 4.62912 15.9666 11.1296
54 4 1 5.24197 17.774 10.11
53 4 1 4.30822 17.0513 11.1139
56 4 3 6.48152 18.2639 10.6421
57 4 1 7.3549 19.2465 10.1163
58 4 1 6.75126 20.4514 9.74353
60 4 1 8.94546 21.4889 9.81613
62 4 1 8.6825 19.3314 10.7081
67 4 2 4.45347 17.4372 12.1409
63 4 1 9.29303 18.1029 11.288
61 4 1 9.52872 20.1935 9.99953
64 4 3 9.62506 17.2248 10.4136
65 4 3 10.4152 18.2815 12.1043
73 4 2 10.1685 18.8318 12.8814
8 1 2 19.304 8.0537 16.6571
ITEM: TIMESTEP
4300
ITEM: NUMBER OF ATOMS
115
ITEM: BOX BOUNDS pp pp pp
-2.8628399999999999e+01 2.8628399999999999e+01
-2.8628399999999999e+01 2.8628399999999999e+01
-2.8628399999999999e+01 2.8628399999999999e+01
ITEM: ATOMS id mol type x y z
74 5 1 13.119 -12.5117 -12.9125
75 5 1 13.8476 -11.2229 -12.8536
76 5 3 14.074 -10.7582 -14.0017
77 5 3 14.8596 -11.0875 -11.8252
78 5 1 15.6248 -9.92864 -11.5826
87 5 2 12.3364 -12.6071 -13.6713
88 5 2 12.813 -12.926 -11.9781
89 5 2 13.9182 -13.1969 -13.2558
83 5 1 16.9178 -9.99072 -11.0233
84 5 1 17.8496 -11.1136 -11.4104
85 5 3 17.4769 -12.2857 -11.4695
86 5 3 19.1724 -11.0298 -10.9838
94 5 2 19.3164 -11.2337 -9.97403
79 5 1 14.7582 -8.99134 -11.0752
80 5 1 15.2345 -7.76493 -10.6035
90 5 2 13.704 -8.9346 -11.3463
91 5 2 14.5142 -7.01615 -10.1915
81 5 1 16.4598 -7.77997 -10.0233
82 5 1 17.4189 -8.6312 -10.6922
92 5 2 16.8364 -6.824 -9.58666
93 5 2 17.858 -8.08472 -11.467
97 6 3 16.9211 17.6725 -9.95159
95 6 1 15.0961 17.3295 -8.4775
108 6 2 14.3557 17.5525 -9.34122
109 6 2 14.7503 17.802 -7.47794
110 6 2 15.2598 16.2237 -8.36654
96 6 1 16.3734 17.9857 -8.85218
98 6 3 17.2174 18.3348 -7.83573
99 6 1 18.3033 19.2855 -7.81486
100 6 1 17.9065 20.5135 -8.35783
101 6 1 18.717 21.6021 -8.18938
102 6 1 19.4031 21.6508 -6.9371
103 6 1 19.9069 20.4508 -6.46927
104 6 1 19.0414 19.2976 -6.58992
105 6 1 19.5235 18.0176 -6.09356
106 6 3 18.7323 17.2837 -5.41095
107 6 3 20.8892 17.6721 -5.88766
111 6 2 17.3419 20.5061 -9.23383
114 6 2 20.5473 20.6232 -5.5938
115 6 2 21.3158 16.733 -5.76336
112 6 2 18.4676 22.4871 -8.7502
113 6 2 20.133 22.4577 -6.8725
45 3 2 15.2477 -6.31666 6.90312
32 3 1 16.3298 -6.20809 7.16228
46 3 2 16.428 -6.04998 8.30154
47 3 2 16.7917 -7.17243 6.8766
33 3 1 16.8787 -5.04774 6.39512
34 3 3 16.6055 -5.02565 5.18287
35 3 3 18.2102 -4.83876 6.80916
36 3 1 19.1011 -3.7551 6.58789
41 3 1 20.358 -3.95516 7.18292
42 3 1 20.9433 -5.30145 7.13974
43 3 3 21.2265 -5.86403 6.05024
44 3 3 21.5845 -5.7393 8.28489
51 3 2 22.1264 -2.91881 7.84595
52 3 2 22.4212 -5.28325 8.55279
40 3 1 21.2134 -2.77832 7.27436
37 3 1 18.464 -2.4792 6.8187
38 3 1 19.3316 -1.44015 6.78138
39 3 1 20.5403 -1.54293 7.48789
48 3 2 17.6278 -2.24089 6.1716
49 3 2 18.8217 -0.502301 6.97061
50 3 2 21.1105 -0.53746 7.50249
55 4 3 5.21914 17.4564 8.9146
69 4 2 5.69089 20.3324 9.51226
59 4 1 7.5204 21.4772 9.20308
72 4 2 10.0919 19.968 9.17407
70 4 2 7.06852 22.4732 9.12265
71 4 2 9.53501 22.2052 9.43416
11 2 1 -12.5028 -22.8589 13.0607
12 2 1 -11.2914 -22.7464 12.2055
13 2 3 -11.2127 -23.6023 11.2981
14 2 3 -10.1352 -22.379 12.767
24 2 2 -13.3911 -22.8618 12.3503
26 2 2 -12.5485 -23.7987 13.6142
21 2 1 -7.36784 -23.1173 13.6972
22 2 3 -6.93676 -23.8702 12.7645
23 2 3 -6.86921 -23.1379 14.9909
31 2 2 -6.11872 -22.6365 15.3642
25 2 2 -12.5948 -21.9572 13.6925
27 2 2 -9.96363 -20.5878 10.545
20 2 1 -7.85802 -21.8108 13.1404
16 2 1 -9.26295 -20.5927 11.4045
28 2 2 -8.45358 -18.5995 10.972
15 2 1 -9.01366 -21.7835 12.1841
17 2 1 -8.22021 -19.5562 11.309
18 2 1 -7.23199 -19.5106 12.3467
19 2 1 -6.89615 -20.6874 12.9821
29 2 2 -6.46884 -18.7226 12.2467
30 2 2 -6.10303 -20.5949 13.6842
1 1 1 18.9013 6.75816 15.0476
2 1 1 19.5824 7.77006 15.6063
3 1 1 20.7098 8.40435 14.9236
7 1 2 18.0695 6.329 15.6029
5 1 4 20.4378 9.39132 13.8599
10 1 2 21.1209 9.52462 13.1183
4 1 3 21.8141 8.49178 15.5575
6 1 2 19.1071 6.35183 14.0707
9 1 2 19.8221 10.1159 14.0317
66 4 2 3.42666 16.9631 10.5201
68 4 2 4.84423 16.0872 11.2907
54 4 1 5.31302 17.7902 10.1224
53 4 1 4.43288 17.0661 11.085
56 4 3 6.56137 18.2001 10.7218
57 4 1 7.37467 19.1585 10.1484
58 4 1 6.74348 20.4462 9.82585
60 4 1 8.86146 21.4509 9.79092
62 4 1 8.69419 19.2576 10.7415
67 4 2 4.2412 17.6359 12.0637
63 4 1 9.28673 18.0687 11.2809
61 4 1 9.48004 20.2311 10.0607
64 4 3 9.46853 17.1903 10.3601
65 4 3 10.3294 18.296 12.1665
73 4 2 10.2503 18.8727 13.041
8 1 2 19.2411 8.17405 16.5594
ITEM: TIMESTEP
4320
ITEM: NUMBER OF ATOMS
115
ITEM: BOX BOUNDS pp pp pp
-2.8628399999999999e+01 2.8628399999999999e+01
-2.8628399999999999e+01 2.8628399999999999e+01
-2.8628399999999999e+01 2.8628399999999999e+01
ITEM: ATOMS id mol type x y z
74 5 1 13.0857 -12.4318 -12.8475
75 5 1 13.9006 -11.2384 -12.8699
76 5 3 14.0746 -10.8167 -14.038
77 5 3 14.9349 -11.1444 -11.8866
78 5 1 15.6076 -9.9286 -11.6588
87 5 2 12.1838 -12.2516 -13.5536
88 5 2 12.6864 -12.6952 -11.7784
89 5 2 13.6238 -13.2471 -13.2352
83 5 1 16.9313 -10.0072 -10.9499
84 5 1 17.9079 -11.0741 -11.3852
85 5 3 17.5951 -12.2825 -11.4031
86 5 3 19.2354 -10.8796 -11.038
94 5 2 19.3574 -10.6265 -10.0556
79 5 1 14.7307 -8.97955 -11.1
80 5 1 15.2474 -7.77187 -10.5276
90 5 2 13.7968 -8.76034 -11.5959
91 5 2 14.548 -7.12128 -9.93971
81 5 1 16.5202 -7.83798 -9.99625
82 5 1 17.3986 -8.63823 -10.7275
92 5 2 16.8901 -6.9889 -9.54237
93 5 2 17.9052 -8.10208 -11.4646
97 6 3 16.9415 17.6322 -9.97435
95 6 1 15.0933 17.3478 -8.50564
108 6 2 14.3299 17.3248 -9.31367
109 6 2 14.7197 17.9647 -7.70331
110 6 2 15.3862 16.3467 -8.14695
96 6 1 16.3123 18.0513 -8.91736
98 6 3 17.1789 18.3911 -7.82654
99 6 1 18.2159 19.3256 -7.8169
100 6 1 17.816 20.5969 -8.28026
101 6 1 18.8142 21.6482 -8.18143
102 6 1 19.5677 21.7017 -7.00402
103 6 1 19.8923 20.441 -6.44519
104 6 1 19.0571 19.2796 -6.62344
105 6 1 19.5145 18.0049 -6.07277
106 6 3 18.7035 17.3681 -5.32343
107 6 3 20.871 17.6747 -5.94231
111 6 2 17.1371 20.6666 -9.1702
114 6 2 20.4 20.5568 -5.50153
115 6 2 21.2137 16.8609 -5.58979
112 6 2 18.5108 22.6336 -8.56726
113 6 2 20.2937 22.5389 -6.92151
45 3 2 15.2715 -6.50303 6.91549
32 3 1 16.3171 -6.24771 7.20296
46 3 2 16.3482 -6.02213 8.29229
47 3 2 16.9585 -7.14792 6.99916
33 3 1 16.8783 -5.14432 6.36134
34 3 3 16.5999 -4.94822 5.19067
35 3 3 18.205 -4.89963 6.7624
36 3 1 19.0252 -3.76564 6.66332
41 3 1 20.3049 -3.99355 7.25492
42 3 1 20.8147 -5.36755 7.2101
43 3 3 21.2009 -5.79044 6.06961
44 3 3 21.5256 -5.8347 8.33757
51 3 2 22.0965 -2.97996 7.61841
52 3 2 22.524 -5.53174 8.52366
40 3 1 21.1781 -2.83546 7.21527
37 3 1 18.4612 -2.46495 6.7996
38 3 1 19.3832 -1.35147 6.81724
39 3 1 20.6141 -1.58854 7.52565
48 3 2 17.4162 -2.24581 6.7815
49 3 2 18.9971 -0.374644 6.74344
50 3 2 21.2709 -0.853857 7.67311
55 4 3 5.269 17.3719 8.98784
69 4 2 5.67366 20.5629 9.58661
59 4 1 7.54867 21.3696 9.23662
72 4 2 10.1472 19.9683 9.4625
70 4 2 7.06453 22.3377 9.04952
71 4 2 9.40511 22.3103 9.51778
11 2 1 -12.5398 -22.93 13.0851
12 2 1 -11.3461 -22.7286 12.1505
13 2 3 -11.2114 -23.5627 11.2303
14 2 3 -10.0869 -22.4167 12.758
24 2 2 -13.4947 -23.2004 12.543
26 2 2 -12.3824 -23.6846 13.7895
21 2 1 -7.38732 -23.0889 13.6198
22 2 3 -6.79869 -23.9251 12.8272
23 2 3 -6.93969 -23.2413 14.9608
31 2 2 -6.08344 -22.7844 15.2704
25 2 2 -12.6697 -22.004 13.5498
27 2 2 -9.83166 -20.6327 10.5318
20 2 1 -7.89274 -21.8098 13.0995
16 2 1 -9.212 -20.616 11.368
28 2 2 -8.6319 -18.6258 10.9571
15 2 1 -8.9643 -21.739 12.1711
17 2 1 -8.37813 -19.5652 11.4572
18 2 1 -7.2113 -19.6101 12.3135
19 2 1 -6.90305 -20.7852 13.0406
29 2 2 -6.33449 -18.9601 12.0956
30 2 2 -6.26187 -20.6378 13.8814
1 1 1 18.9277 6.77839 14.9618
2 1 1 19.5932 7.76113 15.5451
3 1 1 20.6912 8.45166 14.8413
7 1 2 18.082 6.27286 15.5208
5 1 4 20.344 9.49011 13.9739
10 1 2 21.0743 9.81978 13.2867
4 1 3 21.768 8.53891 15.5107
6 1 2 19.2196 6.39596 13.9576
9 1 2 19.5788 10.1555 14.2081
66 4 2 3.45818 16.8901 10.6935
68 4 2 4.93591 15.9493 11.1694
54 4 1 5.27412 17.6954 10.1718
53 4 1 4.45943 16.9191 11.0613
56 4 3 6.46547 18.2406 10.7101
57 4 1 7.28416 19.1936 10.1294
58 4 1 6.73386 20.4944 9.79206
60 4 1 8.78489 21.492 9.82747
62 4 1 8.55945 19.315 10.7316
67 4 2 4.50336 17.4776 11.9807
63 4 1 9.27831 18.0755 11.227
61 4 1 9.3937 20.2592 10.1559
64 4 3 9.48745 17.2052 10.3454
65 4 3 10.2645 18.2866 12.1363
73 4 2 10.1597 18.9227 12.9498
8 1 2 19.2638 8.12628 16.5429
ITEM: TIMESTEP
4340
ITEM: NUMBER OF ATOMS
115
ITEM: BOX BOUNDS pp pp pp
-2.8628399999999999e+01 2.8628399999999999e+01
-2.8628399999999999e+01 2.8628399999999999e+01
-2.8628399999999999e+01 2.8628399999999999e+01
ITEM: ATOMS id mol type x y z
74 5 1 12.9862 -12.4922 -12.797
75 5 1 13.8633 -11.283 -12.9601
76 5 3 14.0736 -10.8139 -14.1037
77 5 3 14.9246 -11.1905 -12.0862
78 5 1 15.5433 -9.97429 -11.5404
87 5 2 12.0706 -12.3582 -13.406
88 5 2 12.6156 -12.6747 -11.7011
89 5 2 13.5616 -13.4004 -13.0946
83 5 1 16.8416 -10.0206 -10.902
84 5 1 17.8713 -11.0084 -11.3153
85 5 3 17.6318 -12.2467 -11.3757
86 5 3 19.2443 -10.7826 -11.0525
94 5 2 19.6319 -10.8888 -10.1148
79 5 1 14.7047 -8.90056 -11.1945
80 5 1 15.2336 -7.71197 -10.5675
90 5 2 13.7152 -8.78088 -11.5621
91 5 2 14.6011 -7.14578 -9.84774
81 5 1 16.4844 -7.9395 -10.0301
82 5 1 17.3586 -8.76477 -10.7389
92 5 2 16.925 -7.13919 -9.4556
93 5 2 17.9131 -8.33021 -11.6187
97 6 3 16.9021 17.624 -9.95949
95 6 1 15.0816 17.2949 -8.52141
108 6 2 14.4002 17.2833 -9.36784
109 6 2 14.5888 17.8664 -7.6857
110 6 2 15.3984 16.2692 -8.19649
96 6 1 16.3648 18.0404 -8.87542
98 6 3 17.1566 18.3514 -7.79575
99 6 1 18.1207 19.397 -7.80791
100 6 1 17.791 20.7274 -8.29444
101 6 1 18.7909 21.7317 -8.17674
102 6 1 19.5957 21.7159 -7.06643
103 6 1 19.84 20.4778 -6.44326
104 6 1 19.0439 19.3525 -6.65663
105 6 1 19.5298 18.0755 -5.99803
106 6 3 18.6589 17.382 -5.36288
107 6 3 20.9234 17.6626 -5.97384
111 6 2 17.3154 20.8096 -9.26724
114 6 2 20.2445 20.553 -5.50818
115 6 2 21.1512 16.6831 -5.72756
112 6 2 18.6222 22.5709 -8.72374
113 6 2 20.3827 22.457 -6.87194
45 3 2 15.273 -6.50124 7.10021
32 3 1 16.3502 -6.33677 7.25124
46 3 2 16.4848 -6.19506 8.30931
47 3 2 16.8569 -7.26143 6.93448
33 3 1 16.8335 -5.17193 6.36923
34 3 3 16.5803 -5.01206 5.16208
35 3 3 18.1246 -4.91614 6.85461
36 3 1 18.9329 -3.78569 6.5863
41 3 1 20.1811 -4.0956 7.28342
42 3 1 20.8461 -5.40398 7.19023
43 3 3 21.1452 -5.88977 6.02022
44 3 3 21.4925 -5.9641 8.28514
51 3 2 22.1127 -3.1364 7.56605
52 3 2 22.4714 -5.86758 8.43736
40 3 1 21.0639 -2.96422 7.29153
37 3 1 18.5114 -2.44194 6.85213
38 3 1 19.4666 -1.3712 6.8747
39 3 1 20.611 -1.65624 7.50712
48 3 2 17.602 -2.05547 6.33378
49 3 2 19.0707 -0.365658 6.93095
50 3 2 21.3698 -0.917788 7.47351
55 4 3 5.39061 17.2955 8.97781
69 4 2 5.75804 20.4724 9.24408
59 4 1 7.6073 21.465 9.3112
72 4 2 10.026 19.9078 9.31503
70 4 2 7.19008 22.3121 8.85939
71 4 2 9.51902 22.4188 9.46256
11 2 1 -12.48 -22.896 13.0564
12 2 1 -11.359 -22.7491 12.1588
13 2 3 -11.2075 -23.6373 11.2467
14 2 3 -10.1415 -22.3589 12.78
24 2 2 -13.4405 -23.0504 12.4464
26 2 2 -12.4258 -23.8276 13.7134
21 2 1 -7.44765 -23.1335 13.6061
22 2 3 -6.75463 -23.8971 12.8324
23 2 3 -6.98747 -23.2194 14.939
31 2 2 -5.92507 -23.1401 15.0444
25 2 2 -12.6208 -21.9092 13.6871
27 2 2 -9.84921 -20.7884 10.5477
20 2 1 -7.93209 -21.8429 13.0826
16 2 1 -9.27024 -20.6436 11.4109
28 2 2 -8.63607 -18.7496 11.0068
15 2 1 -8.99194 -21.8379 12.1485
17 2 1 -8.24701 -19.6913 11.3377
18 2 1 -7.25345 -19.6036 12.3421
19 2 1 -6.99077 -20.796 13.0201
29 2 2 -6.41015 -18.9923 12.0939
30 2 2 -6.06672 -20.8387 13.6099
1 1 1 18.9092 6.73686 14.8878
2 1 1 19.6116 7.65658 15.5007
3 1 1 20.6724 8.43917 14.8046
7 1 2 18.0462 6.31948 15.3824
5 1 4 20.2831 9.50968 13.9835
10 1 2 20.9194 9.90656 13.2819
4 1 3 21.7393 8.59204 15.3577
6 1 2 19.1988 6.29814 13.9125
9 1 2 19.3806 9.99726 14.151
66 4 2 3.47322 16.6081 10.8419
68 4 2 5.02571 15.849 11.3647
54 4 1 5.22346 17.7161 10.1481
53 4 1 4.4798 16.8055 11.1827
56 4 3 6.41081 18.2506 10.7279
57 4 1 7.23589 19.2429 10.1975
58 4 1 6.64267 20.5527 9.79958
60 4 1 8.86082 21.5755 9.89722
62 4 1 8.53956 19.4067 10.7366
67 4 2 4.38962 17.3702 12.186
63 4 1 9.26708 18.1703 11.178
61 4 1 9.47221 20.2759 10.1662
64 4 3 9.44984 17.1828 10.4048
65 4 3 10.2972 18.2739 12.0651
73 4 2 10.1424 18.7495 12.8952
8 1 2 19.2843 8.04187 16.4262
ITEM: TIMESTEP
4360
ITEM: NUMBER OF ATOMS
115
ITEM: BOX BOUNDS pp pp pp
-2.8628399999999999e+01 2.8628399999999999e+01
-2.8628399999999999e+01 2.8628399999999999e+01
-2.8628399999999999e+01 2.8628399999999999e+01
ITEM: ATOMS id mol type x y z
74 5 1 12.9948 -12.565 -12.8263
75 5 1 13.8332 -11.3138 -12.9973
76 5 3 13.9603 -10.8833 -14.1532
77 5 3 14.9132 -11.1895 -12.0821
78 5 1 15.4979 -9.995 -11.5165
87 5 2 11.9916 -12.548 -13.1898
88 5 2 12.8756 -12.6551 -11.7951
89 5 2 13.5342 -13.4618 -13.2873
83 5 1 16.8268 -10.0847 -10.9917
84 5 1 17.9389 -11.034 -11.4184
85 5 3 17.6329 -12.2574 -11.4297
86 5 3 19.2156 -10.7948 -11.0214
94 5 2 19.6648 -11.0974 -10.2052
79 5 1 14.6374 -8.84741 -11.1707
80 5 1 15.2229 -7.75801 -10.6498
90 5 2 13.8248 -8.55802 -11.8193
91 5 2 14.6049 -7.05114 -10.2408
81 5 1 16.493 -7.94491 -9.9417
82 5 1 17.3576 -8.74372 -10.7003
92 5 2 16.9782 -7.0614 -9.43763
93 5 2 17.8499 -8.26921 -11.5493
97 6 3 16.9272 17.6141 -9.93673
95 6 1 15.1522 17.2323 -8.51211
108 6 2 14.6116 17.0626 -9.46918
109 6 2 14.4431 17.8511 -7.84064
110 6 2 15.3823 16.3236 -7.97046
96 6 1 16.4077 18.0469 -8.86105
98 6 3 17.1878 18.4214 -7.78789
99 6 1 18.2187 19.4266 -7.78937
100 6 1 17.8184 20.6893 -8.26798
101 6 1 18.8673 21.6959 -8.29205
102 6 1 19.6006 21.7083 -7.07521
103 6 1 19.9017 20.5016 -6.38956
104 6 1 19.0889 19.3814 -6.62113
105 6 1 19.496 18.0358 -6.00168
106 6 3 18.6393 17.3682 -5.31628
107 6 3 20.7945 17.6499 -5.98046
111 6 2 17.2012 20.7811 -9.13768
114 6 2 20.3866 20.6989 -5.38963
115 6 2 21.0377 16.677 -5.91214
112 6 2 18.4982 22.6797 -8.57595
113 6 2 20.4392 22.4674 -7.01364
45 3 2 15.151 -6.46385 7.01123
32 3 1 16.301 -6.45376 7.15425
46 3 2 16.5958 -6.32267 8.22243
47 3 2 16.7808 -7.36448 6.77402
33 3 1 16.8304 -5.15188 6.43755
34 3 3 16.6119 -5.09347 5.18987
35 3 3 18.1166 -4.83276 6.86705
36 3 1 18.9301 -3.79558 6.65599
41 3 1 20.2128 -4.084 7.2727
42 3 1 20.6903 -5.50657 7.1694
43 3 3 21.1083 -5.99867 6.02244
44 3 3 21.4364 -6.06062 8.16038
51 3 2 22.1362 -3.19931 7.57179
52 3 2 22.4131 -6.19711 8.1383
40 3 1 21.1263 -3.00034 7.23038
37 3 1 18.4075 -2.50146 6.66282
38 3 1 19.3974 -1.39397 6.88971
39 3 1 20.6441 -1.71029 7.48936
48 3 2 17.4532 -2.23287 6.24093
49 3 2 18.973 -0.385312 7.13423
50 3 2 21.3623 -0.879569 7.32057
55 4 3 5.26833 17.3068 9.01483
69 4 2 5.91755 20.3966 9.06542
59 4 1 7.65782 21.5714 9.26247
72 4 2 10.0727 20.0022 9.36831
70 4 2 7.26847 22.5016 8.99161
71 4 2 9.31953 22.4184 10.1349
11 2 1 -12.5012 -22.9002 13.0878
12 2 1 -11.3326 -22.7249 12.1778
13 2 3 -11.2607 -23.6736 11.3027
14 2 3 -10.1354 -22.3642 12.7447
24 2 2 -13.4466 -22.7864 12.5765
26 2 2 -12.5116 -23.9323 13.5105
21 2 1 -7.38756 -23.1227 13.6366
22 2 3 -6.79161 -23.8409 12.8077
23 2 3 -7.01869 -23.2355 14.9236
31 2 2 -6.10738 -23.0599 15.1778
25 2 2 -12.4754 -22.1955 14.032
27 2 2 -10.0551 -20.5115 10.8611
20 2 1 -7.90958 -21.8825 13.0952
16 2 1 -9.18415 -20.6016 11.5189
28 2 2 -8.37232 -18.8599 10.7521
15 2 1 -9.02152 -21.8497 12.1774
17 2 1 -8.17185 -19.7005 11.3174
18 2 1 -7.33915 -19.6682 12.4551
19 2 1 -6.83924 -20.9188 12.8924
29 2 2 -6.61798 -18.8536 12.4641
30 2 2 -6.32355 -20.7755 13.7884
1 1 1 18.9025 6.68825 14.9083
2 1 1 19.515 7.73071 15.4367
3 1 1 20.6729 8.41654 14.7854
7 1 2 18.0744 6.20319 15.3731
5 1 4 20.2085 9.51496 13.9219
10 1 2 20.6485 9.7446 13.058
4 1 3 21.8122 8.50946 15.3389
6 1 2 19.0887 6.36992 13.9601
9 1 2 19.545 10.2124 14.3739
66 4 2 3.41374 16.459 10.6392
68 4 2 4.98755 15.8424 11.3253
54 4 1 5.24566 17.6473 10.202
53 4 1 4.42956 16.8238 11.1282
56 4 3 6.35983 18.3215 10.7415
57 4 1 7.3226 19.3004 10.2714
58 4 1 6.79252 20.5579 9.67573
60 4 1 8.83884 21.5502 9.93238
62 4 1 8.66254 19.3978 10.83
67 4 2 4.13823 17.3027 12.1022
63 4 1 9.36257 18.0569 11.2541
61 4 1 9.45931 20.3218 10.1781
64 4 3 9.41748 17.0665 10.4673
65 4 3 10.383 18.2248 12.1183
73 4 2 10.338 18.8986 12.8504
8 1 2 19.2197 8.07679 16.3935
ITEM: TIMESTEP
4380
ITEM: NUMBER OF ATOMS
115
ITEM: BOX BOUNDS pp pp pp
-2.8628399999999999e+01 2.8628399999999999e+01
-2.8628399999999999e+01 2.8628399999999999e+01
-2.8628399999999999e+01 2.8628399999999999e+01
ITEM: ATOMS id mol type x y z
74 5 1 13.0132 -12.5817 -12.891
75 5 1 13.8127 -11.3378 -12.9259
76 5 3 13.9065 -10.8788 -14.1028
77 5 3 14.8799 -11.1959 -12.0733
78 5 1 15.5374 -10.0236 -11.6675
87 5 2 12.027 -12.3469 -13.3525
88 5 2 12.8026 -12.944 -11.8409
89 5 2 13.4463 -13.3911 -13.5596
83 5 1 16.7982 -10.0601 -10.9803
84 5 1 17.8879 -11.0379 -11.4597
85 5 3 17.5579 -12.2948 -11.5234
86 5 3 19.1613 -10.8842 -10.8718
94 5 2 19.387 -11.2697 -9.93455
79 5 1 14.7054 -8.92126 -11.2163
80 5 1 15.3254 -7.72551 -10.704
90 5 2 13.7305 -8.80838 -11.6598
91 5 2 14.7945 -6.82829 -10.4319
81 5 1 16.5095 -7.8735 -10.021
82 5 1 17.3793 -8.73766 -10.6735
92 5 2 16.8894 -7.12282 -9.41941
93 5 2 17.998 -8.30534 -11.4462
97 6 3 17 17.5868 -9.90489
95 6 1 15.2308 17.2528 -8.49302
108 6 2 14.7795 16.9324 -9.50308
109 6 2 14.4389 17.87 -7.97084
110 6 2 15.5202 16.3656 -7.79487
96 6 1 16.4489 17.9532 -8.82501
98 6 3 17.2738 18.4448 -7.82845
99 6 1 18.2573 19.4361 -7.74012
100 6 1 17.8958 20.6901 -8.30097
101 6 1 18.9482 21.6047 -8.20316
102 6 1 19.6567 21.6731 -7.01567
103 6 1 19.9928 20.4462 -6.44326
104 6 1 19.0412 19.3953 -6.56195
105 6 1 19.4393 18.0689 -5.987
106 6 3 18.6118 17.3782 -5.35999
107 6 3 20.7685 17.5927 -6.0477
111 6 2 17.2991 20.7487 -9.16502
114 6 2 20.53 20.5417 -5.48877
115 6 2 21.0525 16.6366 -5.70632
112 6 2 18.6991 22.624 -8.5979
113 6 2 20.3139 22.5172 -6.8232
45 3 2 15.2056 -6.48302 6.56645
32 3 1 16.1915 -6.40082 6.98807
46 3 2 16.2481 -6.33888 8.10074
47 3 2 16.7978 -7.25453 6.64519
33 3 1 16.8421 -5.20061 6.44037
34 3 3 16.7945 -5.12877 5.2077
35 3 3 18.046 -4.81879 6.9919
36 3 1 18.9704 -3.76447 6.61064
41 3 1 20.2667 -4.0405 7.24531
42 3 1 20.756 -5.50005 7.1521
43 3 3 21.0332 -5.95222 5.98342
44 3 3 21.4506 -6.18242 8.1202
51 3 2 22.0652 -3.15854 7.60022
52 3 2 22.4351 -5.987 8.39537
40 3 1 21.1506 -3.00064 7.21854
37 3 1 18.4243 -2.41279 6.68817
38 3 1 19.3737 -1.40742 6.85236
39 3 1 20.5707 -1.69591 7.40972
48 3 2 17.5273 -2.10344 6.14191
49 3 2 18.9409 -0.473556 7.22451
50 3 2 21.171 -0.811784 7.54614
55 4 3 5.18992 17.3468 9.03926
69 4 2 5.83174 20.3856 9.17598
59 4 1 7.63994 21.5317 9.29103
72 4 2 10.1694 20.0668 9.47597
70 4 2 7.14468 22.5145 9.10448
71 4 2 9.50915 22.427 9.68312
11 2 1 -12.5399 -22.9631 13.1347
12 2 1 -11.3783 -22.7566 12.2242
13 2 3 -11.3822 -23.6359 11.2685
14 2 3 -10.1353 -22.4437 12.7782
24 2 2 -13.5449 -23.1157 12.5332
26 2 2 -12.4106 -23.8959 13.7027
21 2 1 -7.4144 -23.1923 13.6289
22 2 3 -6.81171 -23.9341 12.7669
23 2 3 -6.95172 -23.3208 14.975
31 2 2 -6.08922 -22.9257 15.2538
25 2 2 -12.693 -22.2302 13.9632
27 2 2 -10.0281 -20.5652 10.7209
20 2 1 -7.93612 -21.8413 13.1582
16 2 1 -9.21977 -20.5916 11.4799
28 2 2 -8.5468 -18.7497 10.9246
15 2 1 -9.01561 -21.8346 12.225
17 2 1 -8.17705 -19.7411 11.2773
18 2 1 -7.33644 -19.6929 12.3922
19 2 1 -6.92043 -20.8574 12.9953
29 2 2 -6.48757 -18.9873 12.3152
30 2 2 -6.13319 -20.8431 13.739
1 1 1 18.8853 6.71265 14.9154
2 1 1 19.5289 7.73128 15.4636
3 1 1 20.6268 8.50415 14.8441
7 1 2 18.022 6.38004 15.4335
5 1 4 20.2907 9.58443 13.8882
10 1 2 20.6916 9.538 12.9393
4 1 3 21.8032 8.45678 15.2732
6 1 2 19.194 6.33573 13.9266
9 1 2 20.0614 10.556 14.2018
66 4 2 3.42107 16.4823 10.5871
68 4 2 4.92476 15.8615 11.2271
54 4 1 5.2106 17.742 10.2188
53 4 1 4.36553 16.7699 11.068
56 4 3 6.43534 18.3888 10.8347
57 4 1 7.33821 19.2979 10.2169
58 4 1 6.77835 20.5105 9.66584
60 4 1 8.84873 21.6242 10.0109
62 4 1 8.65457 19.3393 10.8032
67 4 2 4.18865 17.2662 11.9997
63 4 1 9.35976 18.0847 11.2952
61 4 1 9.46764 20.3409 10.1751
64 4 3 9.34612 17.0849 10.5152
65 4 3 10.4317 18.2182 12.2407
73 4 2 10.5721 19.053 12.8454
8 1 2 19.1428 8.04227 16.3445
ITEM: TIMESTEP
4400
ITEM: NUMBER OF ATOMS
115
ITEM: BOX BOUNDS pp pp pp
-2.8628399999999999e+01 2.8628399999999999e+01
-2.8628399999999999e+01 2.8628399999999999e+01
-2.8628399999999999e+01 2.8628399999999999e+01
ITEM: ATOMS id mol type x y z
74 5 1 12.9834 -12.6678 -12.947
75 5 1 13.718 -11.3573 -12.9343
76 5 3 13.9398 -10.8016 -14.0615
77 5 3 14.9654 -11.2107 -12.1216
78 5 1 15.6135 -9.98052 -11.7447
87 5 2 12.0273 -12.6634 -13.5843
88 5 2 12.7792 -12.9977 -11.903
89 5 2 13.6633 -13.3711 -13.4493
83 5 1 16.832 -10.0698 -10.9723
84 5 1 17.8281 -11.0617 -11.3118
85 5 3 17.5756 -12.2723 -11.6029
86 5 3 19.0874 -10.9437 -10.7199
94 5 2 19.1801 -11.1466 -9.76753
79 5 1 14.7955 -8.91269 -11.2233
80 5 1 15.3738 -7.71595 -10.8406
90 5 2 13.7486 -8.76621 -11.5908
91 5 2 14.6983 -6.98927 -10.2271
81 5 1 16.5806 -7.87875 -10.104
82 5 1 17.418 -8.85334 -10.6597
92 5 2 16.9885 -6.98015 -9.71894
93 5 2 18.1849 -8.49052 -11.3859
97 6 3 17.0928 17.5946 -9.84619
95 6 1 15.1926 17.1907 -8.47119
108 6 2 14.4265 17.1528 -9.2341
109 6 2 14.7787 17.5869 -7.5542
110 6 2 15.5641 16.1549 -8.23052
96 6 1 16.4365 18.0057 -8.82812
98 6 3 17.2958 18.4235 -7.76554
99 6 1 18.3584 19.3484 -7.76615
100 6 1 18.1005 20.6644 -8.3206
101 6 1 19.0251 21.6525 -8.18356
102 6 1 19.6922 21.6631 -6.99415
103 6 1 20.0381 20.3984 -6.4757
104 6 1 19.0067 19.3789 -6.53671
105 6 1 19.4428 18.1359 -5.84292
106 6 3 18.5726 17.3615 -5.46277
107 6 3 20.7007 17.5687 -6.0373
111 6 2 17.6686 20.7109 -9.36383
114 6 2 20.5528 20.5012 -5.549
115 6 2 21.0174 16.6938 -5.67886
112 6 2 18.7863 22.5538 -8.61258
113 6 2 20.4641 22.3887 -6.97906
45 3 2 15.2071 -6.61515 6.30514
32 3 1 16.1572 -6.51662 6.93555
46 3 2 16.0504 -6.47858 8.05401
47 3 2 16.6843 -7.47404 6.6641
33 3 1 16.8469 -5.22503 6.35186
34 3 3 16.7912 -5.00597 5.10306
35 3 3 18.0372 -4.78725 7.07356
36 3 1 18.9769 -3.80854 6.76707
41 3 1 20.2683 -4.07723 7.29273
42 3 1 20.8655 -5.43706 7.07405
43 3 3 21.0441 -5.96154 5.92661
44 3 3 21.4718 -6.11182 8.11978
51 3 2 22.1724 -3.13528 7.62173
52 3 2 22.2677 -5.76965 8.54489
40 3 1 21.1743 -2.99619 7.22288
37 3 1 18.4923 -2.47189 6.78104
38 3 1 19.4027 -1.38878 6.80203
39 3 1 20.66 -1.71905 7.41696
48 3 2 17.5735 -2.36253 6.22536
49 3 2 18.9595 -0.43454 6.79623
50 3 2 21.3997 -0.987739 7.63078
55 4 3 5.14155 17.4831 9.02153
69 4 2 5.8634 20.3206 8.97781
59 4 1 7.63543 21.5251 9.39307
72 4 2 10.0241 19.829 9.45787
70 4 2 7.31549 22.3606 8.87428
71 4 2 9.49879 22.442 9.82311
11 2 1 -12.5615 -22.9381 13.1639
12 2 1 -11.484 -22.7374 12.2035
13 2 3 -11.3947 -23.4843 11.2003
14 2 3 -10.2249 -22.4411 12.7701
24 2 2 -13.5566 -23.0791 12.7666
26 2 2 -12.2597 -23.694 13.9286
21 2 1 -7.35908 -23.1909 13.6269
22 2 3 -6.83584 -23.9334 12.7259
23 2 3 -6.8545 -23.3665 14.9539
31 2 2 -5.92943 -23.0849 15.2647
25 2 2 -12.5108 -22.0383 13.7017
27 2 2 -10.1494 -20.6127 10.8793
20 2 1 -7.9399 -21.8436 13.2147
16 2 1 -9.26228 -20.6311 11.4842
28 2 2 -8.36424 -18.8965 10.6015
15 2 1 -9.00556 -21.8214 12.2488
17 2 1 -8.1756 -19.7236 11.268
18 2 1 -7.19984 -19.6197 12.2657
19 2 1 -7.01545 -20.7732 13.1264
29 2 2 -6.44838 -18.9183 12.092
30 2 2 -6.24616 -20.7086 13.9124
1 1 1 19.0042 6.79027 14.8927
2 1 1 19.5812 7.8055 15.5153
3 1 1 20.6101 8.5566 14.8329
7 1 2 18.2425 6.24381 15.3458
5 1 4 20.3734 9.65592 13.9804
10 1 2 20.6833 9.63874 12.9783
4 1 3 21.7707 8.44514 15.1766
6 1 2 19.1969 6.6014 13.8749
9 1 2 20.1393 10.5966 14.3402
66 4 2 3.47925 16.6233 10.527
68 4 2 5.0399 15.877 11.129
54 4 1 5.14982 17.8082 10.2399
53 4 1 4.4799 16.7939 11.0797
56 4 3 6.34497 18.3662 10.749
57 4 1 7.2441 19.2061 10.2114
58 4 1 6.73875 20.4331 9.69105
60 4 1 8.88229 21.6003 9.98268
62 4 1 8.60731 19.3586 10.8617
67 4 2 4.29262 17.2455 12.0477
63 4 1 9.30562 18.1151 11.2968
61 4 1 9.45773 20.3288 10.2652
64 4 3 9.36475 17.0813 10.5624
65 4 3 10.3654 18.1076 12.2334
73 4 2 10.3564 18.8908 12.8593
8 1 2 19.3339 7.9755 16.6095
ITEM: TIMESTEP
4420
ITEM: NUMBER OF ATOMS
115
ITEM: BOX BOUNDS pp pp pp
-2.8628399999999999e+01 2.8628399999999999e+01
-2.8628399999999999e+01 2.8628399999999999e+01
-2.8628399999999999e+01 2.8628399999999999e+01
ITEM: ATOMS id mol type x y z
74 5 1 13.0903 -12.6669 -12.9856
75 5 1 13.8042 -11.3731 -12.9391
76 5 3 13.8115 -10.7353 -14.0245
77 5 3 14.8982 -11.1509 -12.1254
78 5 1 15.6114 -9.95814 -11.81
87 5 2 12.1581 -12.4267 -13.587
88 5 2 12.8553 -13.0624 -12.02
89 5 2 13.6679 -13.3706 -13.5803
83 5 1 16.8688 -10.0884 -11.0681
84 5 1 17.8723 -11.1412 -11.3128
85 5 3 17.5539 -12.3186 -11.7026
86 5 3 19.0905 -10.9436 -10.6189
94 5 2 19.0872 -10.7678 -9.64455
79 5 1 14.7537 -8.92528 -11.3356
80 5 1 15.3701 -7.7479 -10.8162
90 5 2 13.8627 -8.70548 -11.8859
91 5 2 14.7478 -6.87296 -10.5846
81 5 1 16.656 -7.81556 -10.1548
82 5 1 17.4258 -8.81763 -10.7032
92 5 2 17.0776 -6.86867 -9.77471
93 5 2 18.143 -8.41333 -11.3991
97 6 3 17.0544 17.6951 -9.86145
95 6 1 15.2948 17.1665 -8.38768
108 6 2 14.5489 17.1357 -9.19766
109 6 2 14.779 17.6651 -7.50668
110 6 2 15.5568 16.1459 -8.1228
96 6 1 16.4402 18.0022 -8.81217
98 6 3 17.254 18.4225 -7.73358
99 6 1 18.3466 19.3299 -7.77644
100 6 1 18.118 20.6015 -8.39145
101 6 1 19.0849 21.7042 -8.2333
102 6 1 19.7532 21.6852 -6.96877
103 6 1 20.0724 20.4127 -6.45265
104 6 1 19.0864 19.41 -6.5563
105 6 1 19.3436 18.1715 -5.77752
106 6 3 18.4443 17.3291 -5.48178
107 6 3 20.5964 17.5992 -6.03578
111 6 2 17.5204 20.6366 -9.28765
114 6 2 20.7194 20.4737 -5.57411
115 6 2 21.1563 17.1528 -5.38108
112 6 2 18.7479 22.6674 -8.52139
113 6 2 20.4842 22.3883 -6.6545
45 3 2 15.2559 -6.58318 6.45989
32 3 1 16.2357 -6.4861 6.88451
46 3 2 16.0753 -6.40702 7.99707
47 3 2 16.8498 -7.37327 6.60416
33 3 1 16.8073 -5.20367 6.35363
34 3 3 16.7134 -5.02229 5.12316
35 3 3 17.9545 -4.89683 7.01426
36 3 1 18.8982 -3.89028 6.75477
41 3 1 20.2135 -4.11653 7.32041
42 3 1 20.8441 -5.45467 7.05219
43 3 3 21.2296 -5.85345 5.85895
44 3 3 21.4286 -6.04896 8.1572
51 3 2 22.1688 -3.16336 7.61432
52 3 2 22.5038 -5.99732 8.28175
40 3 1 21.1447 -2.98287 7.25492
37 3 1 18.5382 -2.48513 6.778
38 3 1 19.4786 -1.4603 6.87197
39 3 1 20.6559 -1.64762 7.42738
48 3 2 17.5925 -2.18868 6.37201
49 3 2 18.9969 -0.439306 7.04002
50 3 2 21.4359 -0.906933 7.21494
55 4 3 5.08295 17.5293 9.00425
69 4 2 5.74322 20.3749 9.17285
59 4 1 7.61958 21.426 9.26465
72 4 2 10.35 19.9968 9.7043
70 4 2 7.13212 22.4216 9.05634
71 4 2 9.40539 22.3963 9.95023
11 2 1 -12.5116 -22.9916 13.2296
12 2 1 -11.4341 -22.746 12.1638
13 2 3 -11.4211 -23.4813 11.109
14 2 3 -10.2003 -22.4397 12.7575
24 2 2 -13.4606 -23.2349 12.7624
26 2 2 -12.1263 -23.757 13.9156
21 2 1 -7.38472 -23.1713 13.6592
22 2 3 -6.86627 -23.8441 12.7285
23 2 3 -6.91684 -23.3173 14.9912
31 2 2 -5.93465 -23.0236 15.199
25 2 2 -12.6983 -22.0557 13.8859
27 2 2 -9.89387 -20.8349 10.7349
20 2 1 -7.8992 -21.8382 13.2105
16 2 1 -9.24399 -20.6263 11.5331
28 2 2 -8.42128 -18.9405 10.7691
15 2 1 -9.06366 -21.7007 12.3473
17 2 1 -8.14276 -19.7822 11.2649
18 2 1 -7.17295 -19.6706 12.2513
19 2 1 -6.9255 -20.763 13.082
29 2 2 -6.41016 -19.0513 11.8565
30 2 2 -6.30112 -20.4758 13.8969
1 1 1 19.0423 6.8403 14.7969
2 1 1 19.6437 7.80339 15.4979
3 1 1 20.6927 8.58463 14.8283
7 1 2 18.1906 6.36436 15.2521
5 1 4 20.2717 9.66947 13.983
10 1 2 20.6387 9.74588 13.0112
4 1 3 21.8986 8.44113 15.1712
6 1 2 19.3849 6.50247 13.8127
9 1 2 20.1907 10.5734 14.5323
66 4 2 3.59993 16.3742 10.6958
68 4 2 5.26449 15.9654 11.2
54 4 1 5.11335 17.9048 10.2242
53 4 1 4.52843 16.8135 11.1535
56 4 3 6.33769 18.3161 10.7193
57 4 1 7.26508 19.1967 10.15
58 4 1 6.69444 20.4486 9.6533
60 4 1 8.81264 21.4965 10.0741
62 4 1 8.63432 19.2463 10.8483
67 4 2 4.37074 17.2623 12.1961
63 4 1 9.18392 18.0216 11.3913
61 4 1 9.53167 20.2877 10.3113
64 4 3 9.33069 17.1058 10.5403
65 4 3 10.321 18.1312 12.2275
73 4 2 10.2977 18.6416 13.1041
8 1 2 19.3061 8.1089 16.4316
ITEM: TIMESTEP
4440
ITEM: NUMBER OF ATOMS
115
ITEM: BOX BOUNDS pp pp pp
-2.8628399999999999e+01 2.8628399999999999e+01
-2.8628399999999999e+01 2.8628399999999999e+01
-2.8628399999999999e+01 2.8628399999999999e+01
ITEM: ATOMS id mol type x y z
74 5 1 13.197 -12.6837 -13.0326
75 5 1 13.7969 -11.2443 -12.8629
76 5 3 13.7522 -10.6655 -14.0039
77 5 3 14.9669 -11.185 -12.0996
78 5 1 15.6124 -9.93418 -11.777
87 5 2 12.2125 -12.6159 -13.5299
88 5 2 13.2366 -13.0498 -11.9562
89 5 2 13.8261 -13.3896 -13.6303
83 5 1 16.9063 -10.018 -11.0725
84 5 1 17.925 -11.1594 -11.2998
85 5 3 17.5641 -12.2861 -11.7739
86 5 3 19.0764 -11.0858 -10.5604
94 5 2 19.0782 -11.2208 -9.52496
79 5 1 14.778 -8.84009 -11.3177
80 5 1 15.3948 -7.70598 -10.8332
90 5 2 13.8843 -8.56873 -11.7808
91 5 2 14.7805 -6.98296 -10.3086
81 5 1 16.6284 -7.90093 -10.2152
82 5 1 17.5373 -8.80509 -10.7195
92 5 2 16.96 -6.95085 -9.80313
93 5 2 18.3402 -8.46563 -11.3246
97 6 3 17.0016 17.7344 -9.90306
95 6 1 15.3242 17.1306 -8.33336
108 6 2 14.6089 16.8636 -9.17557
109 6 2 14.6641 17.5794 -7.48183
110 6 2 15.754 16.1907 -7.91836
96 6 1 16.437 18.0228 -8.81439
98 6 3 17.3093 18.4911 -7.80159
99 6 1 18.3562 19.3616 -7.76287
100 6 1 18.1128 20.5789 -8.43834
101 6 1 18.9941 21.6372 -8.14789
102 6 1 19.8025 21.6853 -7.02856
103 6 1 20.1075 20.4472 -6.37091
104 6 1 19.0727 19.4456 -6.47619
105 6 1 19.3221 18.1197 -5.79236
106 6 3 18.3898 17.4023 -5.42642
107 6 3 20.5598 17.5759 -5.95698
111 6 2 17.8115 20.5414 -9.49852
114 6 2 20.5681 20.5265 -5.45011
115 6 2 21.026 17.2457 -5.12518
112 6 2 18.7698 22.5682 -8.64413
113 6 2 20.6617 22.3602 -7.07285
45 3 2 15.1377 -6.66508 6.47598
32 3 1 16.2084 -6.46931 6.83049
46 3 2 16.202 -6.38647 7.90517
47 3 2 16.9279 -7.2151 6.53392
33 3 1 16.7199 -5.14684 6.3709
34 3 3 16.6231 -4.94762 5.15123
35 3 3 18.0456 -4.88072 6.95179
36 3 1 18.9607 -3.77778 6.7536
41 3 1 20.27 -4.09176 7.27172
42 3 1 20.8021 -5.46064 7.06558
43 3 3 21.269 -5.71178 5.91782
44 3 3 21.4326 -6.07134 8.18876
51 3 2 22.1124 -3.30594 7.81425
52 3 2 22.4587 -5.98902 8.35668
40 3 1 21.1796 -3.03754 7.35801
37 3 1 18.455 -2.44392 6.86994
38 3 1 19.4304 -1.41655 6.92144
39 3 1 20.6703 -1.71655 7.49631
48 3 2 17.5469 -2.15495 6.3776
49 3 2 18.9969 -0.426491 6.98757
50 3 2 21.4105 -0.968421 7.59499
55 4 3 5.11428 17.5646 8.98186
69 4 2 5.8566 20.3571 9.1522
59 4 1 7.64519 21.3901 9.31821
72 4 2 10.0284 19.8075 9.59869
70 4 2 7.15442 22.2915 8.95194
71 4 2 9.37822 22.3088 10.0743
11 2 1 -12.4793 -23.1029 13.1811
12 2 1 -11.3777 -22.8118 12.1748
13 2 3 -11.3753 -23.4937 11.1436
14 2 3 -10.2162 -22.4043 12.8267
24 2 2 -13.468 -23.3347 12.7187
26 2 2 -12.1238 -24.0273 13.8049
21 2 1 -7.46189 -23.1288 13.6661
22 2 3 -6.83095 -23.8321 12.8886
23 2 3 -6.9187 -23.2573 14.9381
31 2 2 -5.96346 -22.8871 15.0259
25 2 2 -12.6928 -22.2108 13.8313
27 2 2 -9.96734 -20.6657 10.7173
20 2 1 -7.91274 -21.7764 13.2007
16 2 1 -9.24269 -20.5876 11.5439
28 2 2 -8.27745 -18.9034 10.6022
15 2 1 -9.0599 -21.7308 12.3056
17 2 1 -8.07362 -19.7593 11.3094
18 2 1 -7.16058 -19.6689 12.3637
19 2 1 -6.88276 -20.8553 13.0716
29 2 2 -6.30892 -18.9904 12.1527
30 2 2 -6.10793 -20.7936 13.8423
1 1 1 18.9251 6.88811 14.7671
2 1 1 19.5535 7.82822 15.4312
3 1 1 20.6909 8.59727 14.7892
7 1 2 18.0588 6.41954 15.2514
5 1 4 20.2762 9.7205 13.9446
10 1 2 20.767 10.0131 13.021
4 1 3 21.8937 8.58829 15.1757
6 1 2 19.191 6.61084 13.7678
9 1 2 19.6152 10.3614 14.3469
66 4 2 3.69507 16.4444 10.8528
68 4 2 5.31572 15.8805 11.2267
54 4 1 5.24352 17.73 10.2316
53 4 1 4.62492 16.8029 11.2078
56 4 3 6.39862 18.272 10.7314
57 4 1 7.27483 19.1276 10.0816
58 4 1 6.73022 20.3618 9.63982
60 4 1 8.69944 21.4132 10.1332
62 4 1 8.48925 19.2111 10.8437
67 4 2 4.58923 17.2907 12.2293
63 4 1 9.09479 18.0123 11.4196
61 4 1 9.31782 20.1969 10.3339
64 4 3 9.28663 17.1273 10.5617
65 4 3 10.1957 18.1193 12.2421
73 4 2 10.2072 18.6593 13.1025
8 1 2 19.3237 8.03994 16.4424
ITEM: TIMESTEP
4460
ITEM: NUMBER OF ATOMS
115
ITEM: BOX BOUNDS pp pp pp
-2.8628399999999999e+01 2.8628399999999999e+01
-2.8628399999999999e+01 2.8628399999999999e+01
-2.8628399999999999e+01 2.8628399999999999e+01
ITEM: ATOMS id mol type x y z
74 5 1 13.3414 -12.7007 -13.0507
75 5 1 13.8828 -11.3245 -12.9241
76 5 3 13.7387 -10.5699 -13.9467
77 5 3 15.0516 -11.13 -12.1052
78 5 1 15.6364 -9.95325 -11.8084
87 5 2 12.3167 -12.6472 -13.4966
88 5 2 13.4148 -13.2058 -12.0012
89 5 2 14.0832 -13.1597 -13.7428
83 5 1 16.8964 -10.0775 -11.1338
84 5 1 17.9268 -11.1089 -11.3876
85 5 3 17.5731 -12.2098 -11.8607
86 5 3 19.0987 -11.1848 -10.6215
94 5 2 19.0351 -11.3503 -9.58886
79 5 1 14.7822 -8.92906 -11.3886
80 5 1 15.3425 -7.65417 -10.8926
90 5 2 13.776 -8.85101 -11.936
91 5 2 14.7005 -6.97186 -10.3717
81 5 1 16.6384 -7.8972 -10.1976
82 5 1 17.4598 -8.82661 -10.8402
92 5 2 17.0953 -7.07454 -9.7041
93 5 2 18.0276 -8.39155 -11.7088
97 6 3 16.9648 17.6635 -9.86943
95 6 1 15.351 17.1143 -8.30378
108 6 2 14.6929 16.8109 -9.07167
109 6 2 14.781 17.5271 -7.46888
110 6 2 15.9107 16.1968 -7.87332
96 6 1 16.4196 18.0077 -8.77969
98 6 3 17.2015 18.4136 -7.64895
99 6 1 18.3286 19.3298 -7.67156
100 6 1 18.1594 20.5375 -8.37883
101 6 1 18.985 21.6516 -8.08996
102 6 1 19.8814 21.6338 -7.04352
103 6 1 20.0642 20.4154 -6.3181
104 6 1 19.0544 19.4374 -6.4498
105 6 1 19.3174 18.1863 -5.70738
106 6 3 18.4145 17.4016 -5.35591
107 6 3 20.5936 17.595 -5.9123
111 6 2 17.6358 20.5228 -9.32395
114 6 2 20.7292 20.3809 -5.46122
115 6 2 21.0481 17.0988 -5.10643
112 6 2 18.7959 22.5587 -8.54667
113 6 2 20.6541 22.4044 -7.00389
45 3 2 15.1287 -6.47174 6.54765
32 3 1 16.1739 -6.39389 6.85854
46 3 2 16.2346 -6.61814 7.97416
47 3 2 16.8463 -7.16722 6.38777
33 3 1 16.7402 -5.09242 6.41213
34 3 3 16.5943 -4.84973 5.1851
35 3 3 18.019 -4.83188 6.91572
36 3 1 18.884 -3.76003 6.76603
41 3 1 20.1659 -4.0377 7.35331
42 3 1 20.8162 -5.38539 7.12987
43 3 3 21.2848 -5.66272 5.96845
44 3 3 21.4181 -6.10995 8.11943
51 3 2 22.0351 -3.10768 8.02802
52 3 2 22.3319 -5.97306 8.39709
40 3 1 21.1391 -2.96142 7.44945
37 3 1 18.4653 -2.4196 6.93775
38 3 1 19.4677 -1.43407 6.84121
39 3 1 20.62 -1.67098 7.56815
48 3 2 17.553 -2.05624 6.60677
49 3 2 19.0563 -0.493534 7.06431
50 3 2 21.2978 -0.90333 7.45868
55 4 3 5.09803 17.5317 8.99604
69 4 2 5.9433 20.1455 8.89441
59 4 1 7.59387 21.38 9.34769
72 4 2 9.92937 19.8506 9.51206
70 4 2 7.10806 22.2769 9.15465
71 4 2 9.3236 22.2588 9.91438
11 2 1 -12.596 -23.1088 13.1418
12 2 1 -11.49 -22.749 12.2405
13 2 3 -11.338 -23.4086 11.1711
14 2 3 -10.1996 -22.4336 12.8909
24 2 2 -13.5166 -23.2336 12.6618
26 2 2 -12.3326 -24.0821 13.6482
21 2 1 -7.47781 -23.1816 13.7115
22 2 3 -6.89508 -23.8333 12.8664
23 2 3 -6.8529 -23.1928 14.9167
31 2 2 -5.93415 -22.8113 15.0656
25 2 2 -12.6258 -22.2419 13.886
27 2 2 -9.92885 -20.4166 10.879
20 2 1 -7.97237 -21.8351 13.2405
16 2 1 -9.14935 -20.5635 11.5958
28 2 2 -8.31233 -18.8515 10.795
15 2 1 -9.02285 -21.839 12.2867
17 2 1 -8.03685 -19.7349 11.3234
18 2 1 -7.15214 -19.6129 12.3693
19 2 1 -6.92103 -20.8708 13.0036
29 2 2 -6.32394 -18.915 12.2137
30 2 2 -6.13782 -20.8045 13.766
1 1 1 18.7921 7.00982 14.7876
2 1 1 19.6095 7.85325 15.3689
3 1 1 20.6508 8.60173 14.7219
7 1 2 18.0578 6.5012 15.3249
5 1 4 20.315 9.72311 13.9439
10 1 2 20.912 10.0122 13.1192
4 1 3 21.8061 8.63634 15.2324
6 1 2 18.8668 6.86867 13.7752
9 1 2 19.6196 10.4143 14.1826
66 4 2 3.57245 16.669 10.9542
68 4 2 5.21686 15.7978 11.1925
54 4 1 5.27396 17.6976 10.2
53 4 1 4.68422 16.7832 11.2062
56 4 3 6.41251 18.2853 10.6747
57 4 1 7.2838 19.1624 10.1072
58 4 1 6.68881 20.3295 9.62371
60 4 1 8.71823 21.4305 10.1551
62 4 1 8.44604 19.3311 10.9284
67 4 2 4.78685 17.3007 12.1995
63 4 1 9.08904 18.0416 11.3897
61 4 1 9.32791 20.2488 10.3329
64 4 3 9.22442 17.0346 10.655
65 4 3 10.1285 18.1471 12.3114
73 4 2 10.0725 18.8225 13.0189
8 1 2 19.4445 8.1046 16.3937
ITEM: TIMESTEP
4480
ITEM: NUMBER OF ATOMS
115
ITEM: BOX BOUNDS pp pp pp
-2.8628399999999999e+01 2.8628399999999999e+01
-2.8628399999999999e+01 2.8628399999999999e+01
-2.8628399999999999e+01 2.8628399999999999e+01
ITEM: ATOMS id mol type x y z
74 5 1 13.4059 -12.7821 -13.1508
75 5 1 13.8533 -11.3665 -12.9373
76 5 3 13.7273 -10.5918 -13.9018
77 5 3 15.0151 -11.157 -12.1636
78 5 1 15.6991 -9.90996 -11.8899
87 5 2 12.4022 -12.8334 -13.4912
88 5 2 13.5774 -13.3493 -12.2113
89 5 2 14.0198 -13.264 -13.8915
83 5 1 16.9212 -10.0599 -11.1232
84 5 1 17.9188 -11.0745 -11.5621
85 5 3 17.5164 -12.191 -11.9979
86 5 3 18.9978 -11.1882 -10.686
94 5 2 18.9723 -11.5369 -9.76987
79 5 1 14.8026 -8.82891 -11.516
80 5 1 15.3111 -7.80688 -10.8491
90 5 2 13.8483 -8.64363 -12.062
91 5 2 14.6262 -7.10815 -10.3709
81 5 1 16.5257 -7.92379 -10.2479
82 5 1 17.4256 -8.76283 -10.8351
92 5 2 16.8198 -7.06458 -9.68473
93 5 2 18.1219 -8.25145 -11.5005
97 6 3 17.0189 17.6925 -9.76111
95 6 1 15.3068 17.0643 -8.4111
108 6 2 14.5756 17.0423 -9.25636
109 6 2 14.6984 17.5545 -7.58296
110 6 2 15.5714 16.0785 -8.10905
96 6 1 16.4613 17.9436 -8.70005
98 6 3 17.1913 18.4507 -7.65574
99 6 1 18.2928 19.3104 -7.62741
100 6 1 18.0985 20.5894 -8.33932
101 6 1 19.0474 21.6253 -8.16862
102 6 1 19.8205 21.6045 -7.03139
103 6 1 20.0338 20.3779 -6.37908
104 6 1 18.9979 19.4416 -6.37436
105 6 1 19.3705 18.2014 -5.5487
106 6 3 18.4338 17.4049 -5.267
107 6 3 20.5794 17.5921 -5.88894
111 6 2 17.6429 20.5665 -9.27501
114 6 2 20.4701 20.5025 -5.43103
115 6 2 20.9857 16.8449 -5.28477
112 6 2 18.8573 22.5734 -8.65925
113 6 2 20.6314 22.3309 -6.95114
45 3 2 15.0671 -6.44043 6.70902
32 3 1 16.1495 -6.35524 6.89584
46 3 2 16.2922 -6.50465 8.03315
47 3 2 16.7099 -7.22013 6.4222
33 3 1 16.6946 -5.02097 6.45859
34 3 3 16.5796 -4.76763 5.22332
35 3 3 17.9878 -4.8279 7.01896
36 3 1 18.9311 -3.78287 6.85239
41 3 1 20.1855 -4.05453 7.44695
42 3 1 20.8693 -5.32036 7.13807
43 3 3 21.3312 -5.66649 6.01288
44 3 3 21.3444 -5.96578 8.19519
51 3 2 22.073 -3.10166 8.00778
52 3 2 22.2929 -5.66222 8.51396
40 3 1 21.1033 -2.97997 7.49034
37 3 1 18.3952 -2.44749 7.0197
38 3 1 19.3822 -1.43789 6.91951
39 3 1 20.5838 -1.69852 7.63086
48 3 2 17.5337 -2.16365 6.40701
49 3 2 19.0745 -0.428716 6.8519
50 3 2 21.3197 -0.926919 7.75211
55 4 3 5.08182 17.4389 8.98595
69 4 2 5.77138 20.2186 8.92184
59 4 1 7.5474 21.474 9.37016
72 4 2 10.0347 19.8395 9.65611
70 4 2 7.13254 22.466 9.08545
71 4 2 9.39209 22.38 10.0937
11 2 1 -12.5966 -23.107 13.1662
12 2 1 -11.4318 -22.7042 12.3002
13 2 3 -11.2962 -23.3412 11.1882
14 2 3 -10.2103 -22.3902 12.8604
24 2 2 -13.5354 -23.0284 12.5137
26 2 2 -12.5624 -24.1321 13.4414
21 2 1 -7.42804 -23.1013 13.76
22 2 3 -6.92802 -23.8702 12.9005
23 2 3 -6.8073 -23.1033 15.1092
31 2 2 -5.86871 -22.8707 15.3428
25 2 2 -12.7585 -22.5105 14.084
27 2 2 -10.0272 -20.5293 10.9488
20 2 1 -7.94533 -21.7506 13.2725
16 2 1 -9.23256 -20.5386 11.6659
28 2 2 -8.38078 -18.8131 10.9234
15 2 1 -9.05665 -21.7936 12.3758
17 2 1 -8.08909 -19.7748 11.3292
18 2 1 -7.13934 -19.6672 12.3628
19 2 1 -6.86668 -20.8122 13.048
29 2 2 -6.35194 -18.9454 12.1613
30 2 2 -6.1717 -20.7034 13.8509
1 1 1 18.6935 7.14026 14.7263
2 1 1 19.5683 7.81984 15.4173
3 1 1 20.6415 8.5509 14.7043
7 1 2 17.8667 6.59386 15.2501
5 1 4 20.2776 9.75465 13.9177
10 1 2 21.0138 9.99011 13.2573
4 1 3 21.7444 8.56545 15.3373
6 1 2 18.8622 6.95126 13.6187
9 1 2 19.7957 10.5563 14.4378
66 4 2 3.57325 16.6045 10.9239
68 4 2 5.16243 15.8043 10.967
54 4 1 5.1466 17.732 10.2083
53 4 1 4.6284 16.707 11.229
56 4 3 6.42531 18.1908 10.6308
57 4 1 7.26953 19.111 10.084
58 4 1 6.7221 20.348 9.57903
60 4 1 8.74403 21.5198 10.1091
62 4 1 8.44601 19.3017 10.8945
67 4 2 4.73588 17.0676 12.2692
63 4 1 9.14383 18.1198 11.4452
61 4 1 9.34796 20.268 10.3752
64 4 3 9.20414 17.1139 10.6858
65 4 3 10.1347 18.2463 12.3713
73 4 2 10.0149 18.7525 13.2629
8 1 2 19.3064 8.03515 16.4515
ITEM: TIMESTEP
4500
ITEM: NUMBER OF ATOMS
115
ITEM: BOX BOUNDS pp pp pp
-2.8628399999999999e+01 2.8628399999999999e+01
-2.8628399999999999e+01 2.8628399999999999e+01
-2.8628399999999999e+01 2.8628399999999999e+01
ITEM: ATOMS id mol type x y z
74 5 1 13.4399 -12.8454 -13.2441
75 5 1 13.8451 -11.4319 -12.9774
76 5 3 13.6371 -10.6035 -13.9312
77 5 3 14.9876 -11.2016 -12.152
78 5 1 15.6056 -9.95423 -11.9322
87 5 2 12.48 -12.9359 -13.7798
88 5 2 13.2892 -13.4374 -12.2654
89 5 2 14.2108 -13.3937 -13.8682
83 5 1 16.8768 -10.0679 -11.243
84 5 1 17.9559 -11.081 -11.6562
85 5 3 17.5309 -12.1837 -12.0609
86 5 3 18.9508 -11.2769 -10.7307
94 5 2 18.9094 -11.5519 -9.73215
79 5 1 14.7322 -8.93487 -11.5491
80 5 1 15.2317 -7.7566 -10.8753
90 5 2 13.8422 -8.84016 -12.1503
91 5 2 14.5338 -7.12385 -10.2535
81 5 1 16.4988 -7.92066 -10.1832
82 5 1 17.4641 -8.83362 -10.7465
92 5 2 16.9208 -7.0472 -9.66386
93 5 2 18.0601 -8.30991 -11.4928
97 6 3 17.1149 17.7912 -9.77626
95 6 1 15.2687 17.0073 -8.40889
108 6 2 14.591 16.9147 -9.31392
109 6 2 14.5355 17.3718 -7.6405
110 6 2 15.582 16.0518 -8.06477
96 6 1 16.4401 17.945 -8.71109
98 6 3 17.154 18.4906 -7.61276
99 6 1 18.2498 19.3095 -7.64908
100 6 1 18.0514 20.5445 -8.3377
101 6 1 19.0695 21.5041 -8.24167
102 6 1 19.7373 21.6156 -7.0268
103 6 1 19.9042 20.4618 -6.27077
104 6 1 18.9237 19.4245 -6.34529
105 6 1 19.3637 18.2132 -5.55711
106 6 3 18.5042 17.4096 -5.17638
107 6 3 20.5598 17.6833 -5.89031
111 6 2 17.5645 20.4613 -9.29821
114 6 2 20.5326 20.5523 -5.36672
115 6 2 21.0948 17.1764 -5.20012
112 6 2 18.9569 22.4763 -8.81019
113 6 2 20.5865 22.3423 -7.00258
45 3 2 15.022 -6.38391 6.6306
32 3 1 16.0949 -6.3774 6.99512
46 3 2 16.0922 -6.47819 8.0673
47 3 2 16.4698 -7.31285 6.57031
33 3 1 16.758 -5.16293 6.541
34 3 3 16.6019 -4.80096 5.32471
35 3 3 17.9954 -4.80275 7.14326
36 3 1 18.8558 -3.77438 6.86958
41 3 1 20.2306 -4.00051 7.40319
42 3 1 20.9004 -5.29994 7.13852
43 3 3 21.3702 -5.58698 6.01772
44 3 3 21.4724 -5.93143 8.35047
51 3 2 21.9747 -3.17027 8.19338
52 3 2 22.2034 -5.52287 8.92878
40 3 1 21.1508 -2.95014 7.52941
37 3 1 18.4098 -2.46934 6.92398
38 3 1 19.3672 -1.45897 6.94774
39 3 1 20.5196 -1.70232 7.67879
48 3 2 17.4377 -2.15735 6.4881
49 3 2 18.9677 -0.434309 7.12975
50 3 2 21.2434 -0.850097 7.65785
55 4 3 5.01592 17.4197 9.05242
69 4 2 5.86488 20.5909 9.0771
59 4 1 7.59029 21.5339 9.41165
72 4 2 9.87382 19.9213 9.51365
70 4 2 7.11622 22.4304 9.13329
71 4 2 9.5288 22.3119 9.82332
11 2 1 -12.5145 -23.1178 13.1457
12 2 1 -11.4087 -22.6763 12.2603
13 2 3 -11.363 -23.2474 11.1268
14 2 3 -10.2053 -22.3271 12.9402
24 2 2 -13.4256 -23.1406 12.4768
26 2 2 -12.3607 -24.0983 13.5696
21 2 1 -7.37983 -23.0485 13.7892
22 2 3 -6.95893 -23.8657 12.922
23 2 3 -6.83164 -23.1507 15.032
31 2 2 -5.83186 -22.9053 15.2028
25 2 2 -12.7301 -22.368 13.9386
27 2 2 -10.0246 -20.558 10.8608
20 2 1 -7.89903 -21.7465 13.3197
16 2 1 -9.30775 -20.5005 11.6654
28 2 2 -8.35479 -18.8965 10.6804
15 2 1 -9.0636 -21.7262 12.4427
17 2 1 -8.19119 -19.7571 11.3635
18 2 1 -7.14432 -19.6479 12.3358
19 2 1 -6.8504 -20.7992 13.1003
29 2 2 -6.39085 -19.1137 11.8297
30 2 2 -6.05559 -20.7773 13.8524
1 1 1 18.5603 7.15476 14.6606
2 1 1 19.4594 7.88395 15.3518
3 1 1 20.5642 8.62461 14.7521
7 1 2 17.744 6.55738 15.1337
5 1 4 20.2805 9.7016 13.9646
10 1 2 20.7553 9.81506 13.0407
4 1 3 21.7376 8.49664 15.2055
6 1 2 18.6517 7.04183 13.5884
9 1 2 19.7634 10.5812 14.3174
66 4 2 3.57365 16.53 10.9467
68 4 2 5.20069 15.84 11.003
54 4 1 5.09173 17.7681 10.2413
53 4 1 4.60553 16.7632 11.2027
56 4 3 6.35431 18.243 10.6524
57 4 1 7.2139 19.2104 10.0742
58 4 1 6.71504 20.5176 9.61471
60 4 1 8.80866 21.5637 10.0849
62 4 1 8.40282 19.334 10.8869
67 4 2 4.70937 17.1728 12.2214
63 4 1 9.07534 18.096 11.5038
61 4 1 9.29011 20.3106 10.2976
64 4 3 9.18462 17.1776 10.6797
65 4 3 10.0887 18.3045 12.4499
73 4 2 9.9709 18.7751 13.3033
8 1 2 19.288 8.0436 16.3806
ITEM: TIMESTEP
4520
ITEM: NUMBER OF ATOMS
115
ITEM: BOX BOUNDS pp pp pp
-2.8628399999999999e+01 2.8628399999999999e+01
-2.8628399999999999e+01 2.8628399999999999e+01
-2.8628399999999999e+01 2.8628399999999999e+01
ITEM: ATOMS id mol type x y z
74 5 1 13.465 -12.8471 -13.2754
75 5 1 13.7984 -11.4075 -12.9993
76 5 3 13.6171 -10.6225 -13.989
77 5 3 14.8814 -11.135 -12.1776
78 5 1 15.5642 -9.9518 -11.9762
87 5 2 12.5782 -13.0782 -13.863
88 5 2 13.2889 -13.374 -12.3879
89 5 2 14.3426 -13.2879 -13.9105
83 5 1 16.8182 -10.0317 -11.2478
84 5 1 17.8842 -11.0692 -11.6139
85 5 3 17.5228 -12.1377 -12.111
86 5 3 18.941 -11.3185 -10.7145
94 5 2 18.8111 -11.7825 -9.77621
79 5 1 14.7326 -8.88515 -11.4364
80 5 1 15.3381 -7.77464 -10.9113
90 5 2 13.8378 -8.63243 -12.0084
91 5 2 14.8001 -6.95439 -10.4808
81 5 1 16.5443 -7.9768 -10.2183
82 5 1 17.4435 -8.8146 -10.833
92 5 2 16.8232 -7.16654 -9.59155
93 5 2 18.1527 -8.33923 -11.4095
97 6 3 17.0423 17.7676 -9.81199
95 6 1 15.352 17.0827 -8.47207
108 6 2 14.8175 16.7694 -9.36466
109 6 2 14.6057 17.4589 -7.7273
110 6 2 15.844 16.1646 -7.92175
96 6 1 16.4061 18.0242 -8.76713
98 6 3 17.1639 18.3783 -7.64505
99 6 1 18.25 19.2834 -7.59445
100 6 1 17.9803 20.4988 -8.3297
101 6 1 19.059 21.4013 -8.32259
102 6 1 19.6031 21.5914 -7.08536
103 6 1 19.8306 20.5068 -6.21776
104 6 1 18.9685 19.4523 -6.33833
105 6 1 19.3853 18.2921 -5.51456
106 6 3 18.4702 17.4492 -5.20602
107 6 3 20.5941 17.7874 -5.8928
111 6 2 17.5251 20.4176 -9.31603
114 6 2 20.0701 20.7635 -5.1608
115 6 2 21.1712 17.243 -5.31263
112 6 2 18.9433 22.2292 -8.96858
113 6 2 20.4008 22.366 -7.01671
45 3 2 15.0797 -6.49136 6.76818
32 3 1 16.1182 -6.40218 7.1268
46 3 2 16.0893 -6.34184 8.23469
47 3 2 16.6237 -7.35487 6.78835
33 3 1 16.7724 -5.16154 6.59743
34 3 3 16.6122 -4.9743 5.37266
35 3 3 18.0676 -4.85813 7.18001
36 3 1 18.9642 -3.79556 6.79403
41 3 1 20.2091 -4.04326 7.46593
42 3 1 20.9071 -5.35516 7.25241
43 3 3 21.3921 -5.54592 6.12852
44 3 3 21.5404 -5.85844 8.37214
51 3 2 21.9992 -3.10686 8.05705
52 3 2 22.0998 -5.30335 9.02354
40 3 1 21.0548 -2.95264 7.52844
37 3 1 18.4681 -2.49196 6.92389
38 3 1 19.3266 -1.34754 7.00299
39 3 1 20.5272 -1.62909 7.60801
48 3 2 17.5371 -2.24411 6.49871
49 3 2 18.9238 -0.319448 7.1401
50 3 2 21.2556 -0.811928 7.80228
55 4 3 5.03432 17.3906 9.03133
69 4 2 5.87565 20.6873 9.17762
59 4 1 7.67529 21.6328 9.30845
72 4 2 9.84495 19.8635 9.2702
70 4 2 7.31554 22.5841 9.04829
71 4 2 9.64305 22.3154 9.85037
11 2 1 -12.4951 -23.1196 13.14
12 2 1 -11.4028 -22.6584 12.2845
13 2 3 -11.3115 -23.1046 11.1264
14 2 3 -10.1833 -22.3168 13.0147
24 2 2 -13.4498 -23.1133 12.5093
26 2 2 -12.3829 -24.1618 13.6227
21 2 1 -7.43553 -23.06 13.7911
22 2 3 -6.94554 -23.8806 12.9339
23 2 3 -6.78444 -23.1909 15.0398
31 2 2 -5.82543 -22.9301 15.1717
25 2 2 -12.6152 -22.3366 13.9257
27 2 2 -10.0949 -20.5512 11.0487
20 2 1 -7.88839 -21.6825 13.3797
16 2 1 -9.26248 -20.4863 11.7413
28 2 2 -8.53424 -18.6752 10.9699
15 2 1 -9.04444 -21.6239 12.5053
17 2 1 -8.22011 -19.6242 11.4348
18 2 1 -7.14118 -19.5746 12.3517
19 2 1 -6.8522 -20.8059 13.0208
29 2 2 -6.35892 -18.8825 12.0424
30 2 2 -6.10981 -20.6009 13.7367
1 1 1 18.476 7.22471 14.6491
2 1 1 19.4128 7.85492 15.3696
3 1 1 20.5054 8.65268 14.7911
7 1 2 17.7274 6.71589 15.1368
5 1 4 20.2556 9.72913 13.8437
10 1 2 20.5905 9.72236 12.838
4 1 3 21.7073 8.40162 15.0191
6 1 2 18.4814 7.26247 13.6365
9 1 2 19.7257 10.5307 14.1756
66 4 2 3.541 16.3316 11.0623
68 4 2 5.15273 15.6758 11.0721
54 4 1 5.12918 17.7246 10.2408
53 4 1 4.6037 16.6471 11.1925
56 4 3 6.34568 18.3319 10.6457
57 4 1 7.20092 19.3679 10.1848
58 4 1 6.71133 20.663 9.77661
60 4 1 8.86002 21.587 10.0819
62 4 1 8.42553 19.4799 10.8504
67 4 2 4.70967 17.0807 12.2237
63 4 1 8.98957 18.1954 11.447
61 4 1 9.38715 20.2757 10.2038
64 4 3 9.25119 17.2052 10.714
65 4 3 9.96311 18.3808 12.4267
73 4 2 9.87436 19.0551 13.1399
8 1 2 19.3745 7.73279 16.3879
ITEM: TIMESTEP
4540
ITEM: NUMBER OF ATOMS
115
ITEM: BOX BOUNDS pp pp pp
-2.8628399999999999e+01 2.8628399999999999e+01
-2.8628399999999999e+01 2.8628399999999999e+01
-2.8628399999999999e+01 2.8628399999999999e+01
ITEM: ATOMS id mol type x y z
74 5 1 13.5312 -12.7925 -13.2053
75 5 1 13.7521 -11.3609 -13.0676
76 5 3 13.7033 -10.6268 -14.0882
77 5 3 14.8436 -11.1724 -12.269
78 5 1 15.5562 -9.96561 -11.8418
87 5 2 12.5432 -12.9016 -13.7838
88 5 2 13.3467 -13.3231 -12.3074
89 5 2 14.403 -13.2348 -13.8453
83 5 1 16.8487 -10.0171 -11.2598
84 5 1 17.8596 -11.1243 -11.5324
85 5 3 17.4831 -12.137 -12.2146
86 5 3 18.938 -11.2655 -10.641
94 5 2 18.915 -12.0279 -9.96461
79 5 1 14.7021 -8.87095 -11.4278
80 5 1 15.3129 -7.72023 -10.8884
90 5 2 13.7442 -8.73642 -11.8579
91 5 2 14.6988 -6.94092 -10.419
81 5 1 16.5428 -7.93811 -10.1433
82 5 1 17.3594 -8.7931 -10.8853
92 5 2 16.91 -7.05038 -9.77048
93 5 2 18.0229 -8.33142 -11.5534
97 6 3 17.0109 17.7748 -9.86551
95 6 1 15.3219 17.1897 -8.44394
108 6 2 14.6092 17.0831 -9.26302
109 6 2 14.81 17.5207 -7.58144
110 6 2 15.7037 16.2035 -8.1324
96 6 1 16.4281 18.0886 -8.76715
98 6 3 17.2717 18.4017 -7.6241
99 6 1 18.2803 19.2821 -7.59978
100 6 1 18.032 20.4695 -8.31705
101 6 1 19.0585 21.3969 -8.32644
102 6 1 19.6288 21.678 -7.04708
103 6 1 19.8325 20.554 -6.18361
104 6 1 18.8539 19.4822 -6.24667
105 6 1 19.3696 18.2633 -5.5625
106 6 3 18.5175 17.4238 -5.21348
107 6 3 20.6496 17.7276 -5.92396
111 6 2 17.5255 20.3 -9.2245
114 6 2 20.3216 20.6967 -5.24795
115 6 2 21.1092 17.0254 -5.37355
112 6 2 18.8873 22.1696 -9.03086
113 6 2 20.3937 22.3988 -6.99243
45 3 2 15.1967 -6.55009 6.73334
32 3 1 16.1572 -6.37789 7.21783
46 3 2 16.0793 -6.40633 8.31397
47 3 2 16.6992 -7.21183 6.88242
33 3 1 16.7393 -5.17781 6.6369
34 3 3 16.6583 -4.97343 5.43816
35 3 3 18.0477 -4.87828 7.17455
36 3 1 18.9091 -3.87829 6.87676
41 3 1 20.197 -4.04067 7.47952
42 3 1 20.8924 -5.38806 7.25306
43 3 3 21.3485 -5.58654 6.12708
44 3 3 21.5923 -5.80002 8.40805
51 3 2 21.9976 -3.07284 8.01138
52 3 2 22.3219 -5.27135 8.92947
40 3 1 21.0774 -2.92622 7.51458
37 3 1 18.4135 -2.57054 6.93065
38 3 1 19.3122 -1.44783 6.92912
39 3 1 20.4913 -1.66973 7.67071
48 3 2 17.489 -2.33763 6.39792
49 3 2 18.8728 -0.512829 7.16849
50 3 2 21.2072 -0.923745 7.56635
55 4 3 5.024 17.3332 9.12708
69 4 2 5.54064 20.8685 9.58466
59 4 1 7.63768 21.5874 9.36212
72 4 2 9.97134 19.9125 9.47676
70 4 2 7.37249 22.6025 9.04421
71 4 2 9.6527 22.2872 9.6474
11 2 1 -12.5326 -23.0997 13.0764
12 2 1 -11.3331 -22.577 12.2802
13 2 3 -11.3139 -23.0034 11.0888
14 2 3 -10.1585 -22.3365 13.0234
24 2 2 -13.4445 -23.0893 12.4301
26 2 2 -12.3413 -24.1221 13.5328
21 2 1 -7.3956 -23.048 13.8703
22 2 3 -7.06339 -23.9249 13.0078
23 2 3 -6.79299 -23.1977 15.078
31 2 2 -5.77989 -23.0878 15.1173
25 2 2 -12.6841 -22.4198 13.9203
27 2 2 -10.1661 -20.5053 11.0564
20 2 1 -7.84875 -21.681 13.3784
16 2 1 -9.29976 -20.4648 11.7512
28 2 2 -8.5624 -18.6626 10.8439
15 2 1 -9.0614 -21.6909 12.4948
17 2 1 -8.29269 -19.5266 11.4266
18 2 1 -7.1569 -19.5242 12.3259
19 2 1 -6.89074 -20.6988 13.0569
29 2 2 -6.44445 -18.7491 12.2266
30 2 2 -6.00991 -20.6859 13.531
1 1 1 18.2854 7.39854 14.7593
2 1 1 19.4056 7.80778 15.3489
3 1 1 20.4865 8.6655 14.7963
7 1 2 17.5854 6.82193 15.3834
5 1 4 20.3078 9.69559 13.8628
10 1 2 20.6328 9.62062 12.8526
4 1 3 21.6546 8.35205 14.8794
6 1 2 17.9969 7.72315 13.7296
9 1 2 19.8039 10.4713 14.1544
66 4 2 3.55814 16.6269 10.8405
68 4 2 5.12736 15.7832 11.046
54 4 1 5.1872 17.7687 10.2876
53 4 1 4.62919 16.7496 11.1353
56 4 3 6.33271 18.3902 10.8049
57 4 1 7.19053 19.3816 10.1679
58 4 1 6.61244 20.6685 9.81474
60 4 1 8.89706 21.5483 9.92704
62 4 1 8.46944 19.4064 10.7506
67 4 2 4.57967 17.057 12.1955
63 4 1 9.10223 18.1764 11.3754
61 4 1 9.39883 20.2988 10.2629
64 4 3 9.26969 17.1978 10.6665
65 4 3 9.98501 18.3418 12.4039
73 4 2 9.77045 18.9702 13.1641
8 1 2 19.5418 7.30151 16.3514
ITEM: TIMESTEP
4560
ITEM: NUMBER OF ATOMS
115
ITEM: BOX BOUNDS pp pp pp
-2.8628399999999999e+01 2.8628399999999999e+01
-2.8628399999999999e+01 2.8628399999999999e+01
-2.8628399999999999e+01 2.8628399999999999e+01
ITEM: ATOMS id mol type x y z
74 5 1 13.4685 -12.8119 -13.2232
75 5 1 13.7934 -11.3288 -13.0518
76 5 3 13.8268 -10.6461 -14.1499
77 5 3 14.875 -11.1599 -12.1897
78 5 1 15.5134 -9.9209 -11.8531
87 5 2 12.5102 -12.9762 -13.8091
88 5 2 13.3204 -13.3154 -12.1635
89 5 2 14.2324 -13.3472 -13.7433
83 5 1 16.7841 -10.0554 -11.1513
84 5 1 17.8309 -11.1438 -11.4944
85 5 3 17.5416 -12.1027 -12.2675
86 5 3 18.9801 -11.2768 -10.6618
94 5 2 18.8947 -11.8905 -9.84797
79 5 1 14.6479 -8.85698 -11.4721
80 5 1 15.2338 -7.71572 -10.8366
90 5 2 13.7982 -8.60625 -12.1242
91 5 2 14.5569 -7.03523 -10.3857
81 5 1 16.5547 -7.84362 -10.2334
82 5 1 17.4707 -8.77924 -10.892
92 5 2 17.0129 -6.96647 -9.68825
93 5 2 18.2224 -8.30742 -11.5681
97 6 3 17.0148 17.8342 -9.84378
95 6 1 15.1793 17.2753 -8.44992
108 6 2 14.4183 17.286 -9.3079
109 6 2 14.7921 17.7561 -7.58405
110 6 2 15.3884 16.172 -8.11623
96 6 1 16.4372 18.0317 -8.74897
98 6 3 17.2676 18.3588 -7.64082
99 6 1 18.2967 19.3032 -7.55293
100 6 1 18.134 20.5183 -8.32777
101 6 1 19.0724 21.5291 -8.29981
102 6 1 19.7014 21.6803 -7.06876
103 6 1 19.9031 20.6335 -6.23687
104 6 1 18.988 19.4971 -6.28719
105 6 1 19.416 18.239 -5.59531
106 6 3 18.5637 17.4085 -5.20238
107 6 3 20.6675 17.7588 -5.95106
111 6 2 17.6494 20.3702 -9.23046
114 6 2 20.317 20.8984 -5.28943
115 6 2 21.2382 17.111 -5.40684
112 6 2 18.8184 22.3652 -8.91729
113 6 2 20.4881 22.4288 -6.99187
45 3 2 15.0572 -6.37788 7.00822
32 3 1 16.1064 -6.34486 7.20026
46 3 2 16.2241 -6.40017 8.3297
47 3 2 16.4634 -7.30906 6.77963
33 3 1 16.779 -5.16746 6.60513
34 3 3 16.6649 -4.98306 5.39214
35 3 3 18.0355 -4.88682 7.17169
36 3 1 18.9132 -3.86835 6.83805
41 3 1 20.1883 -4.02319 7.48427
42 3 1 20.9163 -5.32594 7.29113
43 3 3 21.3099 -5.60586 6.15181
44 3 3 21.7182 -5.77337 8.34319
51 3 2 21.9662 -3.10927 8.19151
52 3 2 22.6732 -5.49551 8.47614
40 3 1 21.1428 -2.93754 7.58404
37 3 1 18.3465 -2.58304 6.8292
38 3 1 19.2266 -1.50784 7.01242
39 3 1 20.4944 -1.6486 7.60811
48 3 2 17.3365 -2.33454 6.52876
49 3 2 18.8551 -0.498378 6.91139
50 3 2 20.9993 -0.795725 7.89744
55 4 3 5.10618 17.3436 9.01443
69 4 2 5.72619 20.7218 9.34461
59 4 1 7.59008 21.585 9.36595
72 4 2 10.1821 19.9431 9.51926
70 4 2 7.20341 22.5279 9.02927
71 4 2 9.53832 22.3583 9.56697
11 2 1 -12.4965 -23.078 13.0137
12 2 1 -11.3667 -22.536 12.2776
13 2 3 -11.2958 -22.907 11.0716
14 2 3 -10.1319 -22.3733 12.8816
24 2 2 -13.4277 -23.1015 12.3766
26 2 2 -12.191 -24.1167 13.2144
21 2 1 -7.39724 -23.006 13.8786
22 2 3 -7.14677 -23.9592 13.0812
23 2 3 -6.72572 -23.1377 15.1097
31 2 2 -5.68297 -23.2393 15.1161
25 2 2 -12.6384 -22.5724 14.0325
27 2 2 -10.0292 -20.5681 10.9278
20 2 1 -7.87288 -21.647 13.3574
16 2 1 -9.36125 -20.4082 11.7664
28 2 2 -8.58005 -18.8322 10.7905
15 2 1 -9.02048 -21.6371 12.4683
17 2 1 -8.28849 -19.6575 11.4022
18 2 1 -7.26006 -19.5308 12.3466
19 2 1 -6.88163 -20.7721 13.0293
29 2 2 -6.50814 -18.8592 12.0373
30 2 2 -6.18442 -20.5262 13.8427
1 1 1 18.2256 7.50194 14.8779
2 1 1 19.4282 7.8152 15.3386
3 1 1 20.4736 8.66286 14.6573
7 1 2 17.5106 6.83158 15.3988
5 1 4 20.2017 9.76295 13.8794
10 1 2 20.3182 9.69797 12.8416
4 1 3 21.688 8.27996 14.7992
6 1 2 17.9943 7.95947 13.941
9 1 2 20.1068 10.7507 14.2632
66 4 2 3.49161 16.4754 10.8788
68 4 2 5.15904 15.8507 11.3062
54 4 1 5.16414 17.6601 10.281
53 4 1 4.52183 16.7474 11.232
56 4 3 6.32244 18.3446 10.8388
57 4 1 7.18254 19.3625 10.2893
58 4 1 6.65676 20.6459 9.94055
60 4 1 8.88257 21.61 9.85644
62 4 1 8.49959 19.3613 10.7479
67 4 2 4.39527 17.2319 12.2489
63 4 1 9.13923 18.1199 11.3586
61 4 1 9.44863 20.3019 10.1483
64 4 3 9.35274 17.1422 10.637
65 4 3 10.0217 18.2851 12.4331
73 4 2 9.77141 18.9995 13.1072
8 1 2 19.6433 7.39572 16.3041
ITEM: TIMESTEP
4580
ITEM: NUMBER OF ATOMS
115
ITEM: BOX BOUNDS pp pp pp
-2.8628399999999999e+01 2.8628399999999999e+01
-2.8628399999999999e+01 2.8628399999999999e+01
-2.8628399999999999e+01 2.8628399999999999e+01
ITEM: ATOMS id mol type x y z
74 5 1 13.3655 -12.7437 -13.2289
75 5 1 13.8137 -11.3138 -13.0947
76 5 3 13.8695 -10.6836 -14.204
77 5 3 14.8439 -11.0699 -12.1792
78 5 1 15.5522 -9.97737 -11.8241
87 5 2 12.455 -12.8764 -13.7839
88 5 2 13.2497 -13.2733 -12.233
89 5 2 14.1505 -13.2168 -13.8411
83 5 1 16.8264 -10.0608 -11.1898
84 5 1 17.7688 -11.153 -11.4842
85 5 3 17.5184 -12.0699 -12.3094
86 5 3 18.8859 -11.2104 -10.7173
94 5 2 18.9145 -11.4158 -9.74603
79 5 1 14.7476 -8.88495 -11.4517
80 5 1 15.3197 -7.69029 -10.923
90 5 2 13.8204 -8.72153 -12.0861
91 5 2 14.6831 -6.98168 -10.4658
81 5 1 16.5013 -7.92859 -10.284
82 5 1 17.3949 -8.82701 -10.843
92 5 2 16.9435 -7.10964 -9.87379
93 5 2 17.8373 -8.24701 -11.6826
97 6 3 17.0021 17.7556 -9.86368
95 6 1 15.1666 17.3431 -8.46294
108 6 2 14.5669 17.3407 -9.39296
109 6 2 14.4968 17.8732 -7.67596
110 6 2 15.2792 16.3533 -8.1689
96 6 1 16.4253 18.0655 -8.76337
98 6 3 17.2748 18.3897 -7.70019
99 6 1 18.2526 19.3725 -7.59263
100 6 1 18.14 20.6062 -8.33338
101 6 1 19.1387 21.6313 -8.28556
102 6 1 19.7632 21.8336 -7.01539
103 6 1 19.9372 20.6098 -6.25867
104 6 1 18.9712 19.526 -6.36608
105 6 1 19.4664 18.3066 -5.57291
106 6 3 18.6155 17.4717 -5.21431
107 6 3 20.6677 17.7697 -5.96804
111 6 2 17.682 20.5002 -9.31867
114 6 2 20.2428 20.8466 -5.21569
115 6 2 21.1874 17.1872 -5.34935
112 6 2 19.002 22.5907 -8.84191
113 6 2 20.4672 22.6352 -6.87726
45 3 2 14.892 -6.25261 7.07972
32 3 1 15.9913 -6.31493 7.15686
46 3 2 16.1346 -6.38945 8.19421
47 3 2 16.2896 -7.30602 6.71806
33 3 1 16.7593 -5.15366 6.56083
34 3 3 16.5885 -5.00122 5.36998
35 3 3 18.0346 -4.90748 7.13323
36 3 1 19.0045 -3.86467 6.82737
41 3 1 20.2628 -3.98678 7.56534
42 3 1 20.9202 -5.35061 7.32931
43 3 3 21.2776 -5.61834 6.1406
44 3 3 21.765 -5.76908 8.32754
51 3 2 21.9457 -2.87939 8.19597
52 3 2 22.6622 -5.30662 8.34492
40 3 1 21.0415 -2.80718 7.65159
37 3 1 18.4017 -2.58464 6.86778
38 3 1 19.2097 -1.47477 6.94402
39 3 1 20.3332 -1.5827 7.70745
48 3 2 17.5196 -2.39557 6.30321
49 3 2 18.7387 -0.514974 6.89479
50 3 2 20.8895 -0.584993 7.80579
55 4 3 5.18417 17.3447 9.04103
69 4 2 5.60465 20.8113 9.59961
59 4 1 7.4958 21.5984 9.37004
72 4 2 10.1649 19.9439 9.307
70 4 2 7.12103 22.5534 9.14493
71 4 2 9.54418 22.4456 9.58018
11 2 1 -12.4857 -23.1636 12.9958
12 2 1 -11.4121 -22.4672 12.2166
13 2 3 -11.3733 -22.9255 11.0166
14 2 3 -10.1826 -22.358 12.8715
24 2 2 -13.4973 -22.9957 12.5651
26 2 2 -12.3145 -24.2578 12.97
21 2 1 -7.40146 -23.0161 13.9215
22 2 3 -7.09605 -23.8257 13.0511
23 2 3 -6.72375 -23.0064 15.1785
31 2 2 -5.72034 -22.8475 15.2278
25 2 2 -12.4222 -22.8346 14.0234
27 2 2 -10.3066 -20.2814 11.2812
20 2 1 -7.95142 -21.6919 13.3942
16 2 1 -9.39527 -20.3835 11.842
28 2 2 -8.55502 -18.6673 10.9872
15 2 1 -9.06264 -21.6676 12.457
17 2 1 -8.27475 -19.6388 11.3782
18 2 1 -7.23226 -19.6151 12.299
19 2 1 -6.93589 -20.8017 13.0024
29 2 2 -6.43975 -19.0025 11.9527
30 2 2 -6.00215 -20.7702 13.5344
1 1 1 18.1992 7.604 14.9179
2 1 1 19.4114 7.80672 15.368
3 1 1 20.4524 8.5621 14.6338
7 1 2 17.4756 7.04043 15.4779
5 1 4 20.1529 9.71363 13.7686
10 1 2 19.8726 9.53587 12.8468
4 1 3 21.6767 8.28295 14.8006
6 1 2 17.9373 7.83182 13.9129
9 1 2 20.4214 10.6573 14.0573
66 4 2 3.67372 16.339 10.7665
68 4 2 5.29771 15.9466 11.4058
54 4 1 5.20123 17.6939 10.2659
53 4 1 4.55443 16.7198 11.2335
56 4 3 6.34423 18.3065 10.7682
57 4 1 7.19951 19.358 10.3267
58 4 1 6.59972 20.6156 9.87652
60 4 1 8.84638 21.5602 9.87286
62 4 1 8.51667 19.4248 10.8129
67 4 2 4.35941 17.2197 12.1922
63 4 1 9.12718 18.1808 11.3518
61 4 1 9.43167 20.3159 10.0902
64 4 3 9.39396 17.1424 10.6628
65 4 3 10.0133 18.2383 12.4338
73 4 2 10.1617 19.0181 12.9558
8 1 2 19.6207 7.51666 16.3571
ITEM: TIMESTEP
4600
ITEM: NUMBER OF ATOMS
115
ITEM: BOX BOUNDS pp pp pp
-2.8628399999999999e+01 2.8628399999999999e+01
-2.8628399999999999e+01 2.8628399999999999e+01
-2.8628399999999999e+01 2.8628399999999999e+01
ITEM: ATOMS id mol type x y z
74 5 1 13.3795 -12.661 -13.2223
75 5 1 13.7886 -11.27 -13.1475
76 5 3 13.9311 -10.6953 -14.2885
77 5 3 14.836 -11.162 -12.2604
78 5 1 15.5236 -9.92727 -11.9027
87 5 2 12.4717 -12.6916 -13.8549
88 5 2 13.1937 -12.9982 -12.26
89 5 2 14.2082 -13.3202 -13.7064
83 5 1 16.7782 -10.0372 -11.1395
84 5 1 17.7413 -11.1338 -11.4501
85 5 3 17.5395 -12.0316 -12.3434
86 5 3 18.948 -11.2337 -10.7369
94 5 2 19.0982 -11.062 -9.74337
79 5 1 14.7237 -8.76357 -11.4137
80 5 1 15.3919 -7.64258 -10.9559
90 5 2 13.6725 -8.66934 -11.7428
91 5 2 14.7162 -6.91841 -10.6085
81 5 1 16.6061 -7.80672 -10.2685
82 5 1 17.4341 -8.8233 -10.9146
92 5 2 17.1196 -6.98962 -9.86622
93 5 2 18.0668 -8.38183 -11.6231
97 6 3 17.0124 17.6017 -9.90856
95 6 1 15.1392 17.2775 -8.45046
108 6 2 14.481 17.2263 -9.28271
109 6 2 14.5822 17.8139 -7.62509
110 6 2 15.3854 16.2876 -8.0965
96 6 1 16.4389 17.9972 -8.83513
98 6 3 17.237 18.456 -7.69081
99 6 1 18.3314 19.4778 -7.66153
100 6 1 18.0907 20.689 -8.30817
101 6 1 19.0599 21.6199 -8.25069
102 6 1 19.6252 21.8672 -6.95201
103 6 1 19.9199 20.6825 -6.27038
104 6 1 19.0681 19.568 -6.4067
105 6 1 19.4607 18.313 -5.63357
106 6 3 18.5847 17.4869 -5.20503
107 6 3 20.6715 17.7505 -5.98677
111 6 2 17.6291 20.5989 -9.33032
114 6 2 20.5944 20.7574 -5.38323
115 6 2 20.9499 16.9481 -5.45497
112 6 2 18.8602 22.5234 -8.7096
113 6 2 20.4083 22.5956 -7.01403
45 3 2 14.9219 -6.20705 6.86849
32 3 1 15.9955 -6.35169 7.16688
46 3 2 15.9312 -6.33064 8.2652
47 3 2 16.3119 -7.34791 6.75652
33 3 1 16.7606 -5.22561 6.56288
34 3 3 16.5707 -4.96733 5.33618
35 3 3 18.0746 -4.99069 7.08997
36 3 1 18.9838 -3.90461 6.92922
41 3 1 20.2377 -4.03523 7.58336
42 3 1 20.9769 -5.26421 7.31332
43 3 3 21.3425 -5.63887 6.19237
44 3 3 21.8595 -5.75233 8.33546
51 3 2 21.9317 -2.7875 8.13062
52 3 2 22.6181 -5.11474 8.6374
40 3 1 20.9911 -2.77076 7.63071
37 3 1 18.3975 -2.6566 6.84974
38 3 1 19.1881 -1.49988 6.90934
39 3 1 20.344 -1.53875 7.72264
48 3 2 17.4181 -2.56516 6.33404
49 3 2 18.646 -0.532371 6.97872
50 3 2 20.9242 -0.595391 7.83883
55 4 3 5.31168 17.3272 9.03219
69 4 2 5.65631 20.4888 9.30278
59 4 1 7.44107 21.5699 9.43304
72 4 2 9.75194 19.8618 9.27135
70 4 2 7.00134 22.6029 9.25482
71 4 2 9.44187 22.2714 9.4642
11 2 1 -12.5798 -23.0631 12.9828
12 2 1 -11.4738 -22.5255 12.2096
13 2 3 -11.3878 -22.9757 11.017
14 2 3 -10.2117 -22.4445 12.8341
24 2 2 -13.5723 -22.9982 12.4478
26 2 2 -12.348 -24.1303 13.2155
21 2 1 -7.4729 -22.9866 13.9047
22 2 3 -7.06787 -23.8504 13.0726
23 2 3 -6.79872 -22.9279 15.1768
31 2 2 -5.82149 -22.6382 15.2266
25 2 2 -12.6247 -22.514 13.8773
27 2 2 -10.2459 -20.197 11.2673
20 2 1 -7.96941 -21.6421 13.2693
16 2 1 -9.37874 -20.3256 11.9059
28 2 2 -8.61389 -18.6973 10.9712
15 2 1 -9.10846 -21.6345 12.3924
17 2 1 -8.3107 -19.6192 11.3944
18 2 1 -7.15487 -19.6059 12.2057
19 2 1 -6.87679 -20.7937 12.8697
29 2 2 -6.30055 -18.9837 11.8471
30 2 2 -5.97271 -20.7287 13.4543
1 1 1 18.1833 7.567 14.8044
2 1 1 19.3295 7.82091 15.4222
3 1 1 20.3939 8.5089 14.6511
7 1 2 17.5024 6.95443 15.4663
5 1 4 20.0401 9.50108 13.7134
10 1 2 19.7598 9.24277 12.6951
4 1 3 21.6529 8.27203 14.809
6 1 2 17.8753 7.79214 13.7746
9 1 2 20.2521 10.4501 13.9787
66 4 2 3.60392 16.3197 10.8113
68 4 2 5.26552 15.7799 11.2049
54 4 1 5.24355 17.7229 10.2315
53 4 1 4.5716 16.6916 11.1366
56 4 3 6.40509 18.36 10.8032
57 4 1 7.19252 19.3337 10.283
58 4 1 6.56792 20.5398 9.8963
60 4 1 8.78179 21.551 9.889
62 4 1 8.49814 19.4379 10.8809
67 4 2 4.50323 17.1374 12.1534
63 4 1 9.19333 18.2041 11.4003
61 4 1 9.28347 20.3183 10.1073
64 4 3 9.38946 17.1527 10.7041
65 4 3 10.0182 18.2616 12.4282
73 4 2 10.2023 19.189 12.879
8 1 2 19.5188 7.41383 16.4163
ITEM: TIMESTEP
4620
ITEM: NUMBER OF ATOMS
115
ITEM: BOX BOUNDS pp pp pp
-2.8628399999999999e+01 2.8628399999999999e+01
-2.8628399999999999e+01 2.8628399999999999e+01
-2.8628399999999999e+01 2.8628399999999999e+01
ITEM: ATOMS id mol type x y z
74 5 1 13.3151 -12.7415 -13.133
75 5 1 13.811 -11.2845 -13.1315
76 5 3 13.9303 -10.7136 -14.2585
77 5 3 14.833 -11.0522 -12.1507
78 5 1 15.5459 -9.88687 -11.8004
87 5 2 12.4816 -12.7973 -13.8228
88 5 2 12.9829 -12.8952 -12.0783
89 5 2 14.09 -13.4459 -13.4695
83 5 1 16.8679 -9.96001 -11.2168
84 5 1 17.7538 -11.219 -11.3907
85 5 3 17.5703 -12.0511 -12.3097
86 5 3 18.9567 -11.2299 -10.7184
94 5 2 18.9638 -10.8703 -9.7345
79 5 1 14.7156 -8.76978 -11.3751
80 5 1 15.4553 -7.62918 -11.0123
90 5 2 13.9084 -8.58524 -11.985
91 5 2 14.821 -6.79622 -10.7749
81 5 1 16.652 -7.81154 -10.3164
82 5 1 17.4673 -8.75269 -10.9357
92 5 2 17.1628 -6.87888 -9.97618
93 5 2 18.1841 -8.33325 -11.6038
97 6 3 17.0046 17.571 -9.89145
95 6 1 15.2057 17.1977 -8.43157
108 6 2 14.5254 17.1793 -9.25269
109 6 2 14.8126 17.8391 -7.58716
110 6 2 15.5157 16.1558 -8.13811
96 6 1 16.48 17.9254 -8.8094
98 6 3 17.2729 18.43 -7.74136
99 6 1 18.2524 19.4567 -7.66523
100 6 1 18.0299 20.6846 -8.33979
101 6 1 18.9525 21.7318 -8.23044
102 6 1 19.5611 21.8756 -6.9752
103 6 1 19.9118 20.7022 -6.33034
104 6 1 19.0227 19.5525 -6.43302
105 6 1 19.4934 18.3054 -5.71697
106 6 3 18.5615 17.5637 -5.35828
107 6 3 20.7927 17.7679 -5.91345
111 6 2 17.5684 20.5978 -9.3424
114 6 2 20.2748 20.869 -5.35873
115 6 2 21.2771 17.2189 -5.22641
112 6 2 18.8716 22.6577 -8.85596
113 6 2 20.13 22.8263 -6.86452
45 3 2 14.9776 -6.34716 6.89413
32 3 1 16.0098 -6.3535 7.1388
46 3 2 16.1003 -6.37726 8.28504
47 3 2 16.4696 -7.27654 6.6883
33 3 1 16.7549 -5.21235 6.60625
34 3 3 16.622 -4.89105 5.39256
35 3 3 18.0134 -4.93221 7.18294
36 3 1 18.9432 -3.87461 6.90267
41 3 1 20.2194 -4.02744 7.59928
42 3 1 21.0997 -5.20213 7.33134
43 3 3 21.3659 -5.51611 6.17011
44 3 3 21.9195 -5.79079 8.32961
51 3 2 21.8867 -2.74876 8.2029
52 3 2 22.6702 -5.26232 8.74019
40 3 1 21.0171 -2.76015 7.58888
37 3 1 18.3647 -2.5527 6.94181
38 3 1 19.1302 -1.43155 6.8122
39 3 1 20.2906 -1.56733 7.61363
48 3 2 17.4028 -2.44076 6.38704
49 3 2 18.5702 -0.472305 6.78376
50 3 2 20.8356 -0.656403 7.85712
55 4 3 5.40372 17.3251 9.05198
69 4 2 5.57677 20.4462 9.51221
59 4 1 7.34758 21.4978 9.3863
72 4 2 9.89445 19.851 9.37661
70 4 2 6.87167 22.4355 9.26011
71 4 2 9.38549 22.206 9.39068
11 2 1 -12.6126 -22.9987 13.0277
12 2 1 -11.4169 -22.5964 12.1921
13 2 3 -11.3351 -22.9104 10.9598
14 2 3 -10.1929 -22.4017 12.8817
24 2 2 -13.5466 -23.051 12.2816
26 2 2 -12.5318 -23.9708 13.5486
21 2 1 -7.53215 -22.8952 13.8968
22 2 3 -7.05198 -23.796 13.1654
23 2 3 -6.85002 -22.8642 15.0865
31 2 2 -5.89488 -22.5619 15.162
25 2 2 -12.8284 -22.1235 13.7469
27 2 2 -10.3707 -20.3279 11.3757
20 2 1 -7.85879 -21.593 13.2783
16 2 1 -9.44474 -20.3714 11.869
28 2 2 -8.63603 -18.7015 10.8745
15 2 1 -9.11743 -21.584 12.5499
17 2 1 -8.37598 -19.6398 11.3688
18 2 1 -7.15343 -19.6101 12.1532
19 2 1 -6.75372 -20.751 12.8516
29 2 2 -6.33868 -19.0703 11.7131
30 2 2 -5.92662 -20.5899 13.5292
1 1 1 18.1327 7.44588 14.8582
2 1 1 19.351 7.80777 15.4304
3 1 1 20.3713 8.67725 14.7489
7 1 2 17.4391 6.91805 15.4713
5 1 4 20.0322 9.51321 13.606
10 1 2 19.7315 9.14406 12.6569
4 1 3 21.6099 8.31014 14.8243
6 1 2 17.8276 7.77922 13.8959
9 1 2 20.3931 10.5144 13.7034
66 4 2 3.65228 16.302 10.445
68 4 2 5.30075 15.8716 11.0436
54 4 1 5.16651 17.7754 10.2019
53 4 1 4.58139 16.728 11.053
56 4 3 6.28902 18.3614 10.8191
57 4 1 7.20114 19.3384 10.3156
58 4 1 6.61096 20.5079 9.90777
60 4 1 8.73599 21.5088 9.79007
62 4 1 8.49835 19.4325 10.9505
67 4 2 4.32142 17.0149 12.0924
63 4 1 9.13863 18.1708 11.4344
61 4 1 9.3497 20.292 10.1789
64 4 3 9.28518 17.1118 10.7246
65 4 3 10.1217 18.3152 12.4149
73 4 2 10.0444 19.0935 13.1205
8 1 2 19.6 7.46255 16.5027
ITEM: TIMESTEP
4640
ITEM: NUMBER OF ATOMS
115
ITEM: BOX BOUNDS pp pp pp
-2.8628399999999999e+01 2.8628399999999999e+01
-2.8628399999999999e+01 2.8628399999999999e+01
-2.8628399999999999e+01 2.8628399999999999e+01
ITEM: ATOMS id mol type x y z
74 5 1 13.3574 -12.6643 -13.1093
75 5 1 13.7959 -11.2211 -13.0482
76 5 3 13.9861 -10.7446 -14.2294
77 5 3 14.7909 -11.0064 -12.0955
78 5 1 15.5143 -9.8709 -11.8396
87 5 2 12.5349 -12.7942 -13.9118
88 5 2 13.001 -13.0339 -12.085
89 5 2 14.268 -13.1625 -13.386
83 5 1 16.8343 -10.0161 -11.3532
84 5 1 17.6983 -11.254 -11.4372
85 5 3 17.5774 -12.1108 -12.3312
86 5 3 18.9129 -11.2283 -10.7087
94 5 2 18.9345 -11.0633 -9.73892
79 5 1 14.7822 -8.70335 -11.4472
80 5 1 15.4262 -7.54365 -11.041
90 5 2 13.8333 -8.61848 -12.0217
91 5 2 14.7758 -6.74162 -10.6371
81 5 1 16.6301 -7.79567 -10.4338
82 5 1 17.4986 -8.79769 -10.982
92 5 2 17.1347 -6.96948 -9.97256
93 5 2 18.2823 -8.35279 -11.6469
97 6 3 17.063 17.5929 -9.80008
95 6 1 15.2399 17.2397 -8.39716
108 6 2 14.657 16.9864 -9.3415
109 6 2 14.5878 17.8076 -7.70072
110 6 2 15.4514 16.2568 -7.86525
96 6 1 16.4649 18.051 -8.78683
98 6 3 17.301 18.4333 -7.70276
99 6 1 18.3012 19.4105 -7.74654
100 6 1 18.0099 20.629 -8.42075
101 6 1 18.8565 21.7001 -8.27609
102 6 1 19.4584 21.8843 -7.03192
103 6 1 19.8047 20.7138 -6.31501
104 6 1 19.0257 19.5171 -6.48845
105 6 1 19.5007 18.3328 -5.73875
106 6 3 18.6429 17.4333 -5.48116
107 6 3 20.8556 17.8763 -5.93234
111 6 2 17.532 20.5458 -9.38456
114 6 2 20.1499 20.751 -5.30726
115 6 2 21.2878 17.4245 -5.09097
112 6 2 18.4647 22.6228 -8.67797
113 6 2 20.1578 22.7157 -7.14304
45 3 2 14.9763 -6.35992 6.77942
32 3 1 16.0633 -6.35747 7.08869
46 3 2 16.0303 -6.41318 8.21565
47 3 2 16.5859 -7.26951 6.6421
33 3 1 16.7845 -5.10281 6.62939
34 3 3 16.6918 -4.89217 5.3912
35 3 3 17.9904 -4.91871 7.2317
36 3 1 18.868 -3.85551 6.90784
41 3 1 20.1156 -3.964 7.50361
42 3 1 20.9992 -5.24107 7.22105
43 3 3 21.456 -5.44954 6.04059
44 3 3 21.9046 -5.72586 8.18637
51 3 2 21.8746 -2.93416 7.98182
52 3 2 22.6244 -5.09037 8.57155
40 3 1 20.903 -2.78045 7.53899
37 3 1 18.2919 -2.56159 6.86838
38 3 1 19.2001 -1.44898 6.82337
39 3 1 20.3712 -1.53051 7.48727
48 3 2 17.2577 -2.39581 6.45517
49 3 2 18.7361 -0.529456 6.7237
50 3 2 21.0764 -0.818124 7.24937
55 4 3 5.51241 17.3521 9.04554
69 4 2 5.55331 20.6026 9.57014
59 4 1 7.39034 21.4736 9.33593
72 4 2 10.0612 19.8561 9.48462
70 4 2 6.9877 22.4336 9.27632
71 4 2 9.46081 22.2804 9.36304
11 2 1 -12.6569 -22.972 12.9674
12 2 1 -11.3926 -22.6897 12.2267
13 2 3 -11.2893 -22.9992 11.0098
14 2 3 -10.1621 -22.4534 12.9879
24 2 2 -13.5794 -22.9707 12.3701
26 2 2 -12.5486 -24.0239 13.3029
21 2 1 -7.50725 -22.8804 13.8568
22 2 3 -7.02401 -23.7427 13.0837
23 2 3 -6.80695 -22.784 15.0413
31 2 2 -5.92548 -22.4038 15.2179
25 2 2 -12.7114 -22.2653 13.8103
27 2 2 -10.2144 -20.1813 11.2655
20 2 1 -7.96663 -21.5964 13.3059
16 2 1 -9.37455 -20.3039 11.8902
28 2 2 -8.56304 -18.7137 10.9271
15 2 1 -9.10741 -21.6343 12.5231
17 2 1 -8.29706 -19.6353 11.3535
18 2 1 -7.18597 -19.614 12.0838
19 2 1 -6.92999 -20.8366 12.7743
29 2 2 -6.41569 -19.0144 11.6909
30 2 2 -6.05385 -20.7408 13.3147
1 1 1 18.252 7.42616 14.8428
2 1 1 19.3636 7.90827 15.4088
3 1 1 20.3356 8.80885 14.7285
7 1 2 17.6104 6.77885 15.4274
5 1 4 20.0168 9.56267 13.6259
10 1 2 19.5587 9.12058 12.7837
4 1 3 21.5153 8.35013 14.7719
6 1 2 17.9664 7.68392 13.8277
9 1 2 20.6589 10.3605 13.4442
66 4 2 3.62483 16.313 10.6204
68 4 2 5.19949 15.9163 11.3419
54 4 1 5.2278 17.7405 10.2196
53 4 1 4.55565 16.713 11.0659
56 4 3 6.2994 18.327 10.8506
57 4 1 7.1534 19.2968 10.3501
58 4 1 6.56788 20.5144 9.90128
60 4 1 8.74211 21.5186 9.69364
62 4 1 8.49471 19.4232 10.9586
67 4 2 4.33211 17.2812 11.9619
63 4 1 9.17619 18.1762 11.4687
61 4 1 9.34185 20.2834 10.1853
64 4 3 9.2893 17.1678 10.7117
65 4 3 10.2161 18.3235 12.4226
73 4 2 10.1111 18.8006 13.2805
8 1 2 19.7033 7.56473 16.3841
ITEM: TIMESTEP
4660
ITEM: NUMBER OF ATOMS
115
ITEM: BOX BOUNDS pp pp pp
-2.8628399999999999e+01 2.8628399999999999e+01
-2.8628399999999999e+01 2.8628399999999999e+01
-2.8628399999999999e+01 2.8628399999999999e+01
ITEM: ATOMS id mol type x y z
74 5 1 13.3789 -12.5777 -13.1048
75 5 1 13.7369 -11.1753 -13.049
76 5 3 14.1108 -10.7836 -14.1866
77 5 3 14.6889 -10.9839 -12.093
78 5 1 15.4901 -9.83786 -11.9109
87 5 2 12.5047 -12.7271 -13.738
88 5 2 13.2124 -12.9014 -12.082
89 5 2 14.2583 -13.1013 -13.5178
83 5 1 16.8009 -10.0398 -11.2187
84 5 1 17.7072 -11.2646 -11.4288
85 5 3 17.5975 -12.0449 -12.4023
86 5 3 18.8878 -11.3275 -10.7369
94 5 2 18.8571 -11.2422 -9.76735
79 5 1 14.6894 -8.71562 -11.4681
80 5 1 15.3937 -7.57989 -11.055
90 5 2 13.729 -8.54963 -11.973
91 5 2 14.7579 -6.83994 -10.6876
81 5 1 16.6398 -7.70668 -10.4866
82 5 1 17.4594 -8.77699 -11.0169
92 5 2 17.0587 -6.86563 -10.0014
93 5 2 18.1472 -8.46881 -11.8065
97 6 3 17.135 17.6798 -9.801
95 6 1 15.2256 17.3485 -8.44414
108 6 2 14.7895 16.8745 -9.3462
109 6 2 14.5288 17.9522 -7.92004
110 6 2 15.4596 16.5673 -7.72179
96 6 1 16.4711 17.976 -8.80856
98 6 3 17.3087 18.4565 -7.73787
99 6 1 18.3517 19.392 -7.78003
100 6 1 17.9444 20.5557 -8.45315
101 6 1 18.9064 21.6344 -8.33696
102 6 1 19.5046 21.8811 -7.10803
103 6 1 19.7905 20.8163 -6.31867
104 6 1 19.0207 19.6211 -6.49277
105 6 1 19.5122 18.3754 -5.79724
106 6 3 18.7761 17.3937 -5.56867
107 6 3 20.8306 18.0148 -5.93678
111 6 2 17.5172 20.4006 -9.38275
114 6 2 20.1984 20.9478 -5.33343
115 6 2 21.2356 17.1812 -5.5682
112 6 2 18.7228 22.5197 -8.96669
113 6 2 20.1381 22.7756 -7.09095
45 3 2 14.92 -6.38211 6.88895
32 3 1 16.0345 -6.41072 7.09542
46 3 2 16.0717 -6.45194 8.16825
47 3 2 16.5098 -7.32747 6.70712
33 3 1 16.7383 -5.1746 6.67237
34 3 3 16.76 -4.87688 5.43687
35 3 3 17.9687 -4.89312 7.16294
36 3 1 18.9008 -3.82919 6.90435
41 3 1 20.2408 -4.01799 7.45175
42 3 1 21.0178 -5.2317 7.15455
43 3 3 21.4837 -5.39171 6.00329
44 3 3 21.8322 -5.61163 8.1466
51 3 2 21.9969 -2.93768 7.8949
52 3 2 22.784 -5.28563 8.21794
40 3 1 21.041 -2.80907 7.42675
37 3 1 18.324 -2.52638 6.89907
38 3 1 19.2207 -1.40697 6.77399
39 3 1 20.4201 -1.48276 7.46572
48 3 2 17.38 -2.48049 6.30105
49 3 2 18.7459 -0.425667 6.78007
50 3 2 21.0484 -0.630135 7.38635
55 4 3 5.51137 17.3145 9.04376
69 4 2 5.59284 20.5786 9.61715
59 4 1 7.43264 21.5298 9.33478
72 4 2 9.9821 19.7762 9.38767
70 4 2 6.99109 22.5118 9.04237
71 4 2 9.51876 22.154 9.17619
11 2 1 -12.6425 -22.9423 13.0314
12 2 1 -11.3636 -22.6691 12.2217
13 2 3 -11.2202 -23.1101 11.0404
14 2 3 -10.2044 -22.3884 12.9001
24 2 2 -13.5087 -22.8724 12.3848
26 2 2 -12.7033 -23.9867 13.3011
21 2 1 -7.44721 -22.96 13.8079
22 2 3 -6.95285 -23.761 12.9605
23 2 3 -6.8175 -22.7427 15.0676
31 2 2 -5.92246 -22.2504 15.1085
25 2 2 -12.76 -22.299 13.9751
27 2 2 -10.4152 -20.3077 11.2316
20 2 1 -7.9251 -21.6755 13.1331
16 2 1 -9.47758 -20.3198 11.8756
28 2 2 -8.62907 -18.7744 10.8194
15 2 1 -9.18799 -21.5717 12.4087
17 2 1 -8.35996 -19.6805 11.3199
18 2 1 -7.16617 -19.6704 12.0985
19 2 1 -6.86099 -20.8498 12.7799
29 2 2 -6.33209 -18.9855 11.8372
30 2 2 -5.92338 -20.8293 13.3579
1 1 1 18.2593 7.44474 14.8519
2 1 1 19.3476 7.9054 15.4226
3 1 1 20.2993 8.789 14.6999
7 1 2 17.5432 6.81859 15.3585
5 1 4 19.9015 9.57436 13.5414
10 1 2 19.3243 9.13887 12.794
4 1 3 21.4812 8.33803 14.7222
6 1 2 18.0134 7.73356 13.796
9 1 2 20.5714 10.3366 13.1343
66 4 2 3.399 16.7124 10.6987
68 4 2 4.73159 15.815 11.4147
54 4 1 5.29767 17.594 10.2751
53 4 1 4.35206 16.7793 11.1079
56 4 3 6.3479 18.3304 10.9738
57 4 1 7.18258 19.2999 10.3474
58 4 1 6.60369 20.5795 9.96871
60 4 1 8.74844 21.4968 9.74665
62 4 1 8.49884 19.4353 10.9145
67 4 2 4.18841 17.31 12.0625
63 4 1 9.1663 18.1891 11.4604
61 4 1 9.35738 20.275 10.1227
64 4 3 9.31037 17.1966 10.7385
65 4 3 10.1379 18.3131 12.4838
73 4 2 10.0481 19.1669 13.0025
8 1 2 19.7292 7.54391 16.4209
ITEM: TIMESTEP
4680
ITEM: NUMBER OF ATOMS
115
ITEM: BOX BOUNDS pp pp pp
-2.8628399999999999e+01 2.8628399999999999e+01
-2.8628399999999999e+01 2.8628399999999999e+01
-2.8628399999999999e+01 2.8628399999999999e+01
ITEM: ATOMS id mol type x y z
74 5 1 13.301 -12.6813 -13.1825
75 5 1 13.8163 -11.2615 -13.0895
76 5 3 14.1192 -10.7544 -14.2079
77 5 3 14.7471 -11.0232 -12.0412
78 5 1 15.5278 -9.84591 -11.7856
87 5 2 12.4452 -12.8401 -13.9048
88 5 2 13.0253 -12.933 -12.1607
89 5 2 14.2129 -13.4095 -13.4479
83 5 1 16.7775 -10.0357 -11.1026
84 5 1 17.6544 -11.3205 -11.309
85 5 3 17.5579 -11.9868 -12.375
86 5 3 18.8771 -11.4014 -10.7026
94 5 2 19.105 -11.1712 -9.72356
79 5 1 14.7383 -8.72978 -11.4561
80 5 1 15.3904 -7.4836 -10.9908
90 5 2 13.8382 -8.61524 -12.0207
91 5 2 14.7284 -6.68968 -10.6525
81 5 1 16.6736 -7.68437 -10.4563
82 5 1 17.4675 -8.76265 -11.0305
92 5 2 17.2446 -6.7971 -10.249
93 5 2 18.0937 -8.49249 -11.8574
97 6 3 17.1255 17.6695 -9.82312
95 6 1 15.2627 17.4222 -8.43282
108 6 2 14.6633 17.1069 -9.33487
109 6 2 14.5891 18.0485 -7.83079
110 6 2 15.4839 16.4617 -7.84762
96 6 1 16.5526 17.9967 -8.79628
98 6 3 17.3259 18.431 -7.69563
99 6 1 18.3072 19.4027 -7.75068
100 6 1 17.9676 20.6176 -8.4702
101 6 1 18.9269 21.6198 -8.42323
102 6 1 19.4784 21.9292 -7.11547
103 6 1 19.8489 20.8176 -6.37623
104 6 1 19.0025 19.6531 -6.52795
105 6 1 19.5155 18.447 -5.75626
106 6 3 18.7668 17.4714 -5.52775
107 6 3 20.8218 18.0791 -5.95365
111 6 2 17.4082 20.5771 -9.45001
114 6 2 20.2119 21.0349 -5.33905
115 6 2 21.2959 17.2652 -5.58264
112 6 2 18.7352 22.451 -9.01245
113 6 2 20.1881 22.6874 -7.13974
45 3 2 15.0616 -6.32942 6.62785
32 3 1 16.1044 -6.29992 7.02729
46 3 2 15.9485 -6.35017 8.08114
47 3 2 16.6968 -7.18073 6.74168
33 3 1 16.8131 -5.12184 6.52894
34 3 3 16.7576 -4.88275 5.26341
35 3 3 18.0946 -4.8566 7.15855
36 3 1 18.9294 -3.81515 6.89033
41 3 1 20.3071 -3.9097 7.4285
42 3 1 21.0377 -5.14324 7.15893
43 3 3 21.528 -5.42736 6.01351
44 3 3 21.8018 -5.59395 8.25032
51 3 2 22.0176 -2.80406 7.98353
52 3 2 22.7112 -5.20002 8.5829
40 3 1 21.1474 -2.74673 7.30175
37 3 1 18.4323 -2.46653 6.87133
38 3 1 19.1972 -1.35234 6.73739
39 3 1 20.4637 -1.52872 7.37771
48 3 2 17.484 -2.348 6.45706
49 3 2 18.6321 -0.434796 6.77049
50 3 2 21.1276 -0.680136 7.3572
55 4 3 5.43742 17.2701 9.16668
69 4 2 5.59297 20.6495 9.72854
59 4 1 7.57697 21.4978 9.40713
72 4 2 9.82549 19.6727 9.27239
70 4 2 7.204 22.4734 9.19507
71 4 2 9.56863 22.2466 9.4433
11 2 1 -12.6051 -22.9799 12.9788
12 2 1 -11.4249 -22.586 12.1659
13 2 3 -11.2018 -23.2022 11.0602
14 2 3 -10.2199 -22.4109 12.915
24 2 2 -13.517 -22.9362 12.2703
26 2 2 -12.4931 -24.0318 13.3433
21 2 1 -7.39492 -22.9694 13.7892
22 2 3 -6.86984 -23.8302 13.028
23 2 3 -6.84021 -22.781 15.0214
31 2 2 -6.00788 -22.1899 15.0638
25 2 2 -12.6552 -22.2653 13.8817
27 2 2 -10.3299 -20.3693 11.1269
20 2 1 -7.92643 -21.7099 13.2075
16 2 1 -9.44137 -20.4062 11.7932
28 2 2 -8.62241 -18.6283 10.9978
15 2 1 -9.1332 -21.6729 12.4071
17 2 1 -8.30913 -19.5836 11.3395
18 2 1 -7.1888 -19.6471 12.1681
19 2 1 -6.87353 -20.88 12.6784
29 2 2 -6.35054 -19.0737 11.8583
30 2 2 -5.93613 -20.7998 13.2869
1 1 1 18.1321 7.52042 14.9465
2 1 1 19.2966 7.89388 15.4224
3 1 1 20.2425 8.73404 14.7015
7 1 2 17.5026 6.86412 15.5075
5 1 4 19.85 9.61235 13.6694
10 1 2 19.52 9.17486 12.7621
4 1 3 21.4418 8.41296 14.6403
6 1 2 17.9025 7.73682 13.9241
9 1 2 20.162 10.624 13.6606
66 4 2 3.3825 16.6719 10.4681
68 4 2 4.83815 15.7855 11.1558
54 4 1 5.26244 17.6724 10.3254
53 4 1 4.3114 16.8045 11.0833
56 4 3 6.35897 18.3135 10.9533
57 4 1 7.18677 19.3074 10.4105
58 4 1 6.632 20.5486 9.99748
60 4 1 8.8824 21.5063 9.77925
62 4 1 8.51905 19.4195 10.9099
67 4 2 3.96837 17.1501 12.1308
63 4 1 9.12407 18.1614 11.4698
61 4 1 9.3591 20.1643 10.0815
64 4 3 9.30717 17.2051 10.7176
65 4 3 10.0359 18.292 12.5001
73 4 2 10.0882 19.1561 13.046
8 1 2 19.668 7.5274 16.3396
ITEM: TIMESTEP
4700
ITEM: NUMBER OF ATOMS
115
ITEM: BOX BOUNDS pp pp pp
-2.8628399999999999e+01 2.8628399999999999e+01
-2.8628399999999999e+01 2.8628399999999999e+01
-2.8628399999999999e+01 2.8628399999999999e+01
ITEM: ATOMS id mol type x y z
74 5 1 13.2101 -12.6645 -13.2626
75 5 1 13.8942 -11.3122 -13.1083
76 5 3 14.1202 -10.7126 -14.2097
77 5 3 14.79 -11.0949 -12.0435
78 5 1 15.5328 -9.89172 -11.6536
87 5 2 12.4913 -12.6751 -14.0295
88 5 2 12.6657 -12.9367 -12.3367
89 5 2 13.9901 -13.3853 -13.5077
83 5 1 16.8151 -10.0072 -11.042
84 5 1 17.6217 -11.247 -11.3249
85 5 3 17.5495 -11.9392 -12.376
86 5 3 18.815 -11.3283 -10.7276
94 5 2 19.1151 -10.8367 -9.84681
79 5 1 14.7619 -8.73137 -11.4586
80 5 1 15.434 -7.57927 -10.985
90 5 2 13.9749 -8.47202 -12.0704
91 5 2 14.8026 -6.80227 -10.5894
81 5 1 16.7214 -7.69368 -10.4138
82 5 1 17.4932 -8.7297 -10.9291
92 5 2 17.2169 -6.82863 -10.0579
93 5 2 18.0763 -8.41226 -11.8266
97 6 3 17.0707 17.6611 -9.83175
95 6 1 15.1667 17.4439 -8.55644
108 6 2 14.4212 17.724 -9.32517
109 6 2 14.7363 17.9049 -7.56401
110 6 2 15.2145 16.3654 -8.4551
96 6 1 16.505 18.1255 -8.84175
98 6 3 17.3589 18.4267 -7.70214
99 6 1 18.3613 19.454 -7.71232
100 6 1 18.0384 20.622 -8.47105
101 6 1 18.8984 21.6698 -8.41506
102 6 1 19.4739 21.9653 -7.21693
103 6 1 19.7574 20.859 -6.36143
104 6 1 18.9901 19.6204 -6.45477
105 6 1 19.4877 18.4362 -5.68805
106 6 3 18.6885 17.4895 -5.55185
107 6 3 20.886 18.1253 -5.91689
111 6 2 17.5697 20.4457 -9.45442
114 6 2 20.2579 21.0805 -5.39981
115 6 2 21.3776 17.4442 -5.33074
112 6 2 18.4871 22.5592 -9.00273
113 6 2 20.2096 22.8078 -7.20859
45 3 2 15.083 -6.07507 6.56615
32 3 1 16.1229 -6.12173 6.9892
46 3 2 16.0467 -6.03395 8.13152
47 3 2 16.6146 -7.06906 6.73526
33 3 1 16.9051 -5.01692 6.48784
34 3 3 16.7799 -4.93578 5.25221
35 3 3 18.1525 -4.81765 7.10355
36 3 1 18.9696 -3.78292 6.84916
41 3 1 20.3693 -3.88435 7.46462
42 3 1 21.0124 -5.21477 7.21437
43 3 3 21.4476 -5.41648 6.02453
44 3 3 21.8245 -5.6457 8.30297
51 3 2 22.1882 -2.81102 7.75379
52 3 2 22.3779 -4.99625 8.78842
40 3 1 21.1217 -2.72974 7.35466
37 3 1 18.4397 -2.40255 6.87311
38 3 1 19.3347 -1.33865 6.72081
39 3 1 20.5555 -1.44899 7.38958
48 3 2 17.5447 -2.29747 6.33456
49 3 2 18.8325 -0.381522 6.80655
50 3 2 21.2529 -0.686422 7.13361
55 4 3 5.46194 17.259 9.14205
69 4 2 5.76801 20.5401 9.33782
59 4 1 7.62917 21.4409 9.3687
72 4 2 9.5005 19.6187 9.06342
70 4 2 7.23808 22.3693 9.07006
71 4 2 9.668 22.0954 9.35113
11 2 1 -12.5828 -22.975 12.9723
12 2 1 -11.3599 -22.6052 12.2004
13 2 3 -11.1923 -23.2712 11.1388
14 2 3 -10.1721 -22.3774 12.9197
24 2 2 -13.4292 -23.1205 12.3289
26 2 2 -12.3636 -23.8959 13.5245
21 2 1 -7.47612 -22.9343 13.7983
22 2 3 -6.87306 -23.8387 13.124
23 2 3 -6.92276 -22.7665 15.079
31 2 2 -6.09001 -22.2557 15.2347
25 2 2 -12.7177 -22.1333 13.6786
27 2 2 -10.2254 -20.3476 10.9871
20 2 1 -7.93536 -21.6585 13.1358
16 2 1 -9.40006 -20.3939 11.7002
28 2 2 -8.70209 -18.6233 11.0632
15 2 1 -9.09586 -21.6744 12.3445
17 2 1 -8.3648 -19.5699 11.3636
18 2 1 -7.26411 -19.5861 12.1596
19 2 1 -6.85071 -20.8403 12.7601
29 2 2 -6.55811 -18.8898 11.8438
30 2 2 -5.98274 -20.8421 13.3696
1 1 1 18.0753 7.4702 14.9674
2 1 1 19.2375 7.8835 15.4299
3 1 1 20.2141 8.75769 14.753
7 1 2 17.4707 6.84141 15.6102
5 1 4 19.8601 9.64791 13.6996
10 1 2 19.8492 9.26505 12.7187
4 1 3 21.4365 8.38745 14.6567
6 1 2 17.8295 7.81248 14.0072
9 1 2 20.1926 10.5596 13.7017
66 4 2 3.51774 16.4887 10.4847
68 4 2 4.91978 15.965 11.4838
54 4 1 5.23966 17.749 10.258
53 4 1 4.37864 16.8366 11.0628
56 4 3 6.32381 18.3167 11.0229
57 4 1 7.21151 19.3636 10.4455
58 4 1 6.69772 20.6043 9.95345
60 4 1 8.9393 21.4187 9.84572
62 4 1 8.55295 19.3959 10.9517
67 4 2 3.9309 17.4357 11.8656
63 4 1 9.173 18.1805 11.4706
61 4 1 9.35209 20.1137 10.0095
64 4 3 9.27238 17.2433 10.6774
65 4 3 10.109 18.2656 12.4424
73 4 2 10.1905 18.8888 13.1966
8 1 2 19.5286 7.54061 16.3615
ITEM: TIMESTEP
4720
ITEM: NUMBER OF ATOMS
115
ITEM: BOX BOUNDS pp pp pp
-2.8628399999999999e+01 2.8628399999999999e+01
-2.8628399999999999e+01 2.8628399999999999e+01
-2.8628399999999999e+01 2.8628399999999999e+01
ITEM: ATOMS id mol type x y z
74 5 1 13.1629 -12.5482 -13.2992
75 5 1 13.8746 -11.2519 -13.0977
76 5 3 14.0914 -10.6828 -14.1777
77 5 3 14.8266 -11.1479 -12.1169
78 5 1 15.5461 -9.92408 -11.6814
87 5 2 12.3298 -12.4028 -14.0845
88 5 2 12.5972 -12.8821 -12.3761
89 5 2 13.8698 -13.3412 -13.6415
83 5 1 16.8238 -10.0369 -11.0551
84 5 1 17.6635 -11.2385 -11.2962
85 5 3 17.5322 -11.9133 -12.3681
86 5 3 18.8222 -11.2414 -10.6229
94 5 2 18.822 -11.045 -9.60345
79 5 1 14.8054 -8.74313 -11.3722
80 5 1 15.485 -7.55189 -11.0364
90 5 2 13.8866 -8.53253 -11.9782
91 5 2 14.9 -6.64367 -10.7555
81 5 1 16.7006 -7.75808 -10.4011
82 5 1 17.5059 -8.79076 -10.9672
92 5 2 17.1901 -6.92176 -10.0951
93 5 2 17.9819 -8.51939 -11.8897
97 6 3 17.0826 17.7617 -9.89833
95 6 1 15.1728 17.5621 -8.63052
108 6 2 14.4716 17.6764 -9.49709
109 6 2 14.6568 18.0868 -7.81668
110 6 2 15.2816 16.4916 -8.39583
96 6 1 16.4646 18.1298 -8.8872
98 6 3 17.2016 18.4563 -7.78143
99 6 1 18.3477 19.4034 -7.71536
100 6 1 18.0609 20.6028 -8.50858
101 6 1 18.9383 21.7622 -8.36286
102 6 1 19.4837 21.9708 -7.13188
103 6 1 19.8015 20.911 -6.31702
104 6 1 19.0328 19.6895 -6.44655
105 6 1 19.5202 18.4678 -5.66038
106 6 3 18.7387 17.5453 -5.57385
107 6 3 20.8107 18.0612 -5.87757
111 6 2 17.6919 20.418 -9.54664
114 6 2 19.9516 21.2501 -5.35621
115 6 2 21.2801 17.4857 -5.20232
112 6 2 18.8507 22.5205 -9.0508
113 6 2 20.1673 22.8656 -7.14424
45 3 2 15.0243 -5.97477 6.85797
32 3 1 16.056 -6.16306 7.02749
46 3 2 16.1028 -6.19817 8.15108
47 3 2 16.4599 -7.12034 6.58143
33 3 1 16.8773 -4.99809 6.461
34 3 3 16.7867 -4.92347 5.23865
35 3 3 18.1462 -4.79591 7.05116
36 3 1 19.03 -3.71229 6.83731
41 3 1 20.3024 -3.84932 7.48433
42 3 1 21.0512 -5.13923 7.26559
43 3 3 21.3241 -5.43902 6.06233
44 3 3 21.8565 -5.6668 8.30913
51 3 2 22.1289 -2.78644 7.93569
52 3 2 22.7288 -5.21447 8.4721
40 3 1 21.1847 -2.7105 7.44362
37 3 1 18.4883 -2.36186 6.84176
38 3 1 19.3489 -1.2912 6.80377
39 3 1 20.5533 -1.41441 7.4608
48 3 2 17.4898 -2.21341 6.39402
49 3 2 18.7662 -0.337834 6.76882
50 3 2 21.1 -0.523963 7.53139
55 4 3 5.58834 17.3193 9.139
69 4 2 5.70749 20.6823 9.73741
59 4 1 7.63531 21.4581 9.28735
72 4 2 9.77322 19.747 9.17717
70 4 2 7.26673 22.4453 8.92977
71 4 2 9.62846 22.1641 9.40347
11 2 1 -12.5647 -22.9345 13.015
12 2 1 -11.2906 -22.6786 12.2164
13 2 3 -11.1421 -23.4052 11.1656
14 2 3 -10.1519 -22.3419 12.8873
24 2 2 -13.3815 -22.9894 12.2695
26 2 2 -12.5163 -23.977 13.4641
21 2 1 -7.47732 -22.8537 13.9067
22 2 3 -6.95215 -23.7786 13.2159
23 2 3 -6.99196 -22.6478 15.2028
31 2 2 -6.01954 -22.4615 15.4318
25 2 2 -12.7125 -22.2026 13.8097
27 2 2 -10.3711 -20.3701 11.1236
20 2 1 -7.8637 -21.6332 13.1129
16 2 1 -9.49455 -20.4141 11.7616
28 2 2 -8.60586 -18.7477 10.6668
15 2 1 -9.06814 -21.669 12.3289
17 2 1 -8.39287 -19.6108 11.3307
18 2 1 -7.30891 -19.5433 12.1952
19 2 1 -6.88967 -20.7373 12.7591
29 2 2 -6.48369 -19.0027 11.7299
30 2 2 -5.96988 -20.731 13.3692
1 1 1 18.0944 7.52819 14.9621
2 1 1 19.27 7.89848 15.4096
3 1 1 20.2813 8.74138 14.7962
7 1 2 17.4963 6.9102 15.4701
5 1 4 19.8858 9.69788 13.7556
10 1 2 19.7107 9.43801 12.7648
4 1 3 21.4713 8.2597 14.7562
6 1 2 17.6121 7.99268 14.1365
9 1 2 20.032 10.7379 13.9316
66 4 2 3.49387 16.7073 10.5897
68 4 2 4.88757 15.9109 11.3691
54 4 1 5.28047 17.7439 10.2843
53 4 1 4.40787 16.8741 11.108
56 4 3 6.29371 18.3884 10.9631
57 4 1 7.16714 19.341 10.4749
58 4 1 6.75035 20.5648 9.9533
60 4 1 8.91539 21.4687 9.81937
62 4 1 8.50196 19.3378 10.9185
67 4 2 4.04232 17.428 12.0047
63 4 1 9.24904 18.0974 11.4166
61 4 1 9.3849 20.1751 10.0708
64 4 3 9.23705 17.1069 10.63
65 4 3 10.2677 18.2438 12.3326
73 4 2 10.1338 18.7425 13.2505
8 1 2 19.5444 7.48353 16.4206
ITEM: TIMESTEP
4740
ITEM: NUMBER OF ATOMS
115
ITEM: BOX BOUNDS pp pp pp
-2.8628399999999999e+01 2.8628399999999999e+01
-2.8628399999999999e+01 2.8628399999999999e+01
-2.8628399999999999e+01 2.8628399999999999e+01
ITEM: ATOMS id mol type x y z
74 5 1 13.1406 -12.5974 -13.3283
75 5 1 13.8249 -11.2279 -13.1413
76 5 3 14.0585 -10.5876 -14.1838
77 5 3 14.8759 -11.1341 -12.1202
78 5 1 15.5281 -9.92258 -11.7311
87 5 2 12.1623 -12.4441 -13.8032
88 5 2 12.9526 -13.0174 -12.3536
89 5 2 13.7739 -13.3293 -13.9603
83 5 1 16.7875 -10.035 -11.0869
84 5 1 17.6664 -11.2555 -11.279
85 5 3 17.5993 -11.8905 -12.3905
86 5 3 18.8616 -11.3175 -10.5201
94 5 2 18.8816 -10.8589 -9.66188
79 5 1 14.8262 -8.77354 -11.2688
80 5 1 15.558 -7.59595 -11.0366
90 5 2 13.8207 -8.57959 -11.5669
91 5 2 15.0662 -6.77385 -10.642
81 5 1 16.7517 -7.87132 -10.3385
82 5 1 17.4586 -8.87997 -10.9381
92 5 2 17.4251 -7.02516 -10.0146
93 5 2 18.0886 -8.62431 -11.7765
97 6 3 17.0682 17.8169 -10.0797
95 6 1 15.1901 17.5356 -8.64168
108 6 2 14.6063 17.3855 -9.52092
109 6 2 14.5128 18.1189 -7.96241
110 6 2 15.3676 16.5164 -8.11788
96 6 1 16.5518 18.1665 -8.95596
98 6 3 17.3193 18.5302 -7.78909
99 6 1 18.3355 19.49 -7.75242
100 6 1 18.0763 20.6384 -8.4502
101 6 1 18.9625 21.6777 -8.33083
102 6 1 19.5248 21.9889 -7.0427
103 6 1 19.7526 20.7791 -6.2545
104 6 1 18.8543 19.6973 -6.4805
105 6 1 19.4582 18.4919 -5.69205
106 6 3 18.7438 17.5348 -5.50444
107 6 3 20.792 17.9607 -5.8742
111 6 2 17.6334 20.4665 -9.44497
114 6 2 20.3222 20.852 -5.39639
115 6 2 21.0858 17.1671 -5.28744
112 6 2 18.6123 22.5334 -8.86387
113 6 2 20.2622 22.6501 -7.10222
45 3 2 15.0518 -6.08331 6.67189
32 3 1 16.1226 -6.21295 7.03514
46 3 2 16.0097 -6.16774 8.18165
47 3 2 16.5985 -7.19188 6.65796
33 3 1 16.9373 -5.06012 6.42291
34 3 3 16.7955 -4.86161 5.20225
35 3 3 18.1608 -4.79573 7.01349
36 3 1 19.0597 -3.6722 6.8251
41 3 1 20.3177 -3.82514 7.4336
42 3 1 21.0363 -5.11476 7.29166
43 3 3 21.2603 -5.42393 6.09066
44 3 3 21.9002 -5.5879 8.29715
51 3 2 22.0931 -2.68426 8.01011
52 3 2 22.8752 -5.40335 8.26993
40 3 1 21.2167 -2.68175 7.35019
37 3 1 18.4567 -2.38484 6.88058
38 3 1 19.3599 -1.25426 6.85042
39 3 1 20.5999 -1.45793 7.44427
48 3 2 17.5076 -2.27819 6.33074
49 3 2 18.8971 -0.276431 6.91019
50 3 2 21.2654 -0.605547 7.3474
55 4 3 5.67774 17.3738 9.16228
69 4 2 5.68539 20.6691 9.52516
59 4 1 7.54834 21.4824 9.31489
72 4 2 10.0835 19.7538 9.39364
70 4 2 7.23528 22.4621 8.99704
71 4 2 9.55123 22.0982 9.43553
11 2 1 -12.5187 -22.9028 13.0276
12 2 1 -11.3368 -22.7135 12.2011
13 2 3 -11.148 -23.5555 11.2468
14 2 3 -10.1724 -22.3509 12.8876
24 2 2 -13.4493 -22.8854 12.3566
26 2 2 -12.5035 -23.8935 13.5499
21 2 1 -7.43894 -22.7876 13.9676
22 2 3 -6.97141 -23.7809 13.3807
23 2 3 -7.07162 -22.6112 15.2773
31 2 2 -6.11552 -22.403 15.5835
25 2 2 -12.4966 -22.0555 13.7471
27 2 2 -10.4244 -20.2025 11.3768
20 2 1 -7.90573 -21.6061 13.2022
16 2 1 -9.43036 -20.3725 11.8414
28 2 2 -8.78488 -18.7711 10.7918
15 2 1 -9.12984 -21.5885 12.3712
17 2 1 -8.39847 -19.6018 11.293
18 2 1 -7.29518 -19.4707 12.0989
19 2 1 -6.84384 -20.6954 12.7437
29 2 2 -6.54796 -18.7232 11.8404
30 2 2 -5.99887 -20.5149 13.4809
1 1 1 18.1021 7.59872 14.9002
2 1 1 19.2534 7.86009 15.4589
3 1 1 20.2638 8.69134 14.7167
7 1 2 17.3077 7.03642 15.4153
5 1 4 19.932 9.70838 13.7839
10 1 2 19.6169 9.4349 12.7446
4 1 3 21.4289 8.29168 14.7829
6 1 2 17.7964 8.00371 13.9845
9 1 2 19.9261 10.7541 14.0804
66 4 2 3.38733 16.5432 10.5668
68 4 2 5.04136 16.0632 11.3926
54 4 1 5.24323 17.7843 10.2567
53 4 1 4.37398 16.8883 11.1432
56 4 3 6.29101 18.3966 11.0095
57 4 1 7.2401 19.2918 10.3942
58 4 1 6.65731 20.6379 9.97955
60 4 1 8.86416 21.4238 9.76353
62 4 1 8.57955 19.3519 10.9294
67 4 2 4.03429 17.4119 12.0799
63 4 1 9.19591 18.0289 11.3912
61 4 1 9.41517 20.1848 10.1534
64 4 3 9.39138 16.9893 10.6344
65 4 3 10.2645 18.2394 12.2748
73 4 2 10.2176 19.0066 12.8937
8 1 2 19.4889 7.49181 16.5006
ITEM: TIMESTEP
4760
ITEM: NUMBER OF ATOMS
115
ITEM: BOX BOUNDS pp pp pp
-2.8628399999999999e+01 2.8628399999999999e+01
-2.8628399999999999e+01 2.8628399999999999e+01
-2.8628399999999999e+01 2.8628399999999999e+01
ITEM: ATOMS id mol type x y z
74 5 1 13.143 -12.6002 -13.3312
75 5 1 13.7956 -11.2251 -13.1307
76 5 3 13.9887 -10.6035 -14.1971
77 5 3 14.8072 -11.1148 -12.1212
78 5 1 15.5043 -9.96677 -11.7779
87 5 2 12.1756 -12.4433 -13.87
88 5 2 12.9412 -13.1195 -12.3756
89 5 2 13.8633 -13.267 -13.9346
83 5 1 16.7845 -10.1128 -11.0135
84 5 1 17.6365 -11.3029 -11.2139
85 5 3 17.6873 -11.8311 -12.3467
86 5 3 18.8299 -11.3452 -10.5004
94 5 2 18.7244 -11.1764 -9.43589
79 5 1 14.8089 -8.79147 -11.2729
80 5 1 15.5864 -7.64662 -11.0111
90 5 2 13.8732 -8.50918 -11.795
91 5 2 15.0727 -6.76523 -10.682
81 5 1 16.7868 -7.88136 -10.2914
82 5 1 17.5836 -8.92896 -10.907
92 5 2 17.371 -7.00085 -9.96952
93 5 2 18.1679 -8.6314 -11.7529
97 6 3 17.1452 17.7994 -10.0727
95 6 1 15.3161 17.5368 -8.80004
108 6 2 14.6411 17.4869 -9.66402
109 6 2 14.7597 18.1738 -8.10881
110 6 2 15.3673 16.5577 -8.27723
96 6 1 16.5996 18.1452 -9.01688
98 6 3 17.3183 18.4726 -7.86077
99 6 1 18.2858 19.4872 -7.71933
100 6 1 18.0506 20.7382 -8.48762
101 6 1 19.032 21.7495 -8.32197
102 6 1 19.5179 21.8981 -7.05361
103 6 1 19.7199 20.7473 -6.29232
104 6 1 18.9437 19.6386 -6.42135
105 6 1 19.5012 18.3858 -5.7283
106 6 3 18.7209 17.4676 -5.48583
107 6 3 20.7921 17.937 -5.97463
111 6 2 17.64 20.64 -9.40982
114 6 2 20.0557 20.9922 -5.2377
115 6 2 21.1403 17.348 -5.2575
112 6 2 18.8402 22.6401 -8.96802
113 6 2 20.2607 22.7119 -6.90904
45 3 2 15.0779 -6.24117 6.65686
32 3 1 16.2053 -6.27183 7.00594
46 3 2 16.1661 -6.01826 8.07465
47 3 2 16.7668 -7.19995 6.77731
33 3 1 17.014 -5.1035 6.40706
34 3 3 16.8182 -4.84285 5.21134
35 3 3 18.2261 -4.78045 6.98913
36 3 1 19.0721 -3.6839 6.77647
41 3 1 20.3278 -3.77932 7.36671
42 3 1 20.9932 -5.14028 7.30586
43 3 3 21.2186 -5.5555 6.12423
44 3 3 21.9036 -5.50262 8.20598
51 3 2 22.2625 -2.84398 7.63417
52 3 2 22.799 -5.05333 8.30559
40 3 1 21.233 -2.72114 7.24953
37 3 1 18.4748 -2.39378 6.84873
38 3 1 19.3818 -1.26719 6.79706
39 3 1 20.6581 -1.43097 7.39025
48 3 2 17.5487 -2.24428 6.40243
49 3 2 18.9165 -0.34249 6.92718
50 3 2 21.3306 -0.650391 7.11694
55 4 3 5.59976 17.3451 9.20289
69 4 2 5.63727 20.6054 9.46598
59 4 1 7.51475 21.4498 9.35481
72 4 2 10.1859 19.7578 9.47082
70 4 2 7.09059 22.4363 9.09046
71 4 2 9.61276 22.094 9.27283
11 2 1 -12.5536 -22.9171 13.0282
12 2 1 -11.2938 -22.7029 12.1928
13 2 3 -11.1059 -23.5137 11.1972
14 2 3 -10.154 -22.2564 12.9282
24 2 2 -13.3919 -23.148 12.4183
26 2 2 -12.3736 -23.7698 13.761
21 2 1 -7.44688 -22.7045 13.9472
22 2 3 -7.05398 -23.806 13.4078
23 2 3 -7.05482 -22.5924 15.3381
31 2 2 -6.14299 -22.1007 15.5911
25 2 2 -12.732 -21.9812 13.6701
27 2 2 -10.3337 -20.2 11.257
20 2 1 -7.84665 -21.4972 13.1941
16 2 1 -9.44448 -20.2628 11.8231
28 2 2 -8.68573 -18.4928 10.9776
15 2 1 -9.04516 -21.5098 12.4025
17 2 1 -8.35326 -19.4421 11.2831
18 2 1 -7.19281 -19.4814 12.0395
19 2 1 -6.843 -20.6667 12.6968
29 2 2 -6.33025 -18.9876 11.707
30 2 2 -5.91765 -20.6016 13.2444
1 1 1 18.1125 7.53785 14.8545
2 1 1 19.2064 7.92197 15.4256
3 1 1 20.2479 8.73715 14.6976
7 1 2 17.521 6.78163 15.3814
5 1 4 19.841 9.74587 13.7767
10 1 2 19.5824 9.4673 12.8395
4 1 3 21.4433 8.31444 14.726
6 1 2 17.8688 7.87087 13.8693
9 1 2 19.9134 10.6954 14.0438
66 4 2 3.66207 16.462 10.366
68 4 2 5.13862 16.1063 11.4004
54 4 1 5.22191 17.8504 10.292
53 4 1 4.43383 16.8347 11.0768
56 4 3 6.2863 18.4524 10.9275
57 4 1 7.22005 19.3882 10.4221
58 4 1 6.65658 20.5799 9.96522
60 4 1 8.89378 21.4575 9.75628
62 4 1 8.60457 19.3475 10.8381
67 4 2 3.984 17.2888 11.9801
63 4 1 9.18562 18.0695 11.4078
61 4 1 9.50995 20.2089 10.2074
64 4 3 9.38417 17.0632 10.6792
65 4 3 10.2499 18.2892 12.2829
73 4 2 10.2332 19.1481 12.7911
8 1 2 19.4496 7.59748 16.3874
ITEM: TIMESTEP
4780
ITEM: NUMBER OF ATOMS
115
ITEM: BOX BOUNDS pp pp pp
-2.8628399999999999e+01 2.8628399999999999e+01
-2.8628399999999999e+01 2.8628399999999999e+01
-2.8628399999999999e+01 2.8628399999999999e+01
ITEM: ATOMS id mol type x y z
74 5 1 13.1662 -12.5469 -13.446
75 5 1 13.7889 -11.2423 -13.1619
76 5 3 13.9756 -10.5663 -14.1566
77 5 3 14.696 -11.1082 -12.0698
78 5 1 15.5147 -9.97283 -11.7766
87 5 2 12.4068 -12.4245 -14.2386
88 5 2 12.7126 -12.9339 -12.4869
89 5 2 13.9603 -13.2652 -13.7401
83 5 1 16.7638 -10.1214 -11.0375
84 5 1 17.6308 -11.3678 -11.1864
85 5 3 17.7701 -11.7758 -12.3647
86 5 3 18.8121 -11.4437 -10.4517
94 5 2 18.7497 -11.4234 -9.45573
79 5 1 14.8084 -8.75347 -11.3934
80 5 1 15.5147 -7.65995 -10.9107
90 5 2 13.9216 -8.60169 -11.905
91 5 2 14.9453 -6.80102 -10.5041
81 5 1 16.7787 -7.87604 -10.3251
82 5 1 17.4722 -8.91958 -10.8828
92 5 2 17.2975 -7.06851 -9.9606
93 5 2 18.1248 -8.60148 -11.6952
97 6 3 17.2433 17.6973 -10.046
95 6 1 15.2599 17.6031 -8.72942
108 6 2 14.7075 17.4255 -9.67666
109 6 2 14.616 18.1518 -8.01802
110 6 2 15.394 16.5579 -8.36417
96 6 1 16.614 18.1973 -9.06381
98 6 3 17.3837 18.4677 -7.91793
99 6 1 18.2883 19.5392 -7.81691
100 6 1 18.0496 20.8071 -8.52235
101 6 1 19.0142 21.8363 -8.4067
102 6 1 19.5211 21.9215 -7.08789
103 6 1 19.7682 20.7561 -6.3525
104 6 1 18.9341 19.6043 -6.48421
105 6 1 19.4506 18.3185 -5.77872
106 6 3 18.6939 17.3682 -5.43145
107 6 3 20.7979 17.9417 -6.05507
111 6 2 17.574 20.6827 -9.47996
114 6 2 20.2214 20.9575 -5.41307
115 6 2 21.2926 17.4983 -5.35106
112 6 2 18.7843 22.7683 -8.93792
113 6 2 20.3307 22.6694 -6.95009
45 3 2 15.2558 -6.27453 6.69282
32 3 1 16.2871 -6.22465 7.02748
46 3 2 16.2953 -6.13256 8.11035
47 3 2 16.9145 -7.12545 6.73557
33 3 1 17.0217 -5.02496 6.39645
34 3 3 16.8657 -4.83842 5.16578
35 3 3 18.2103 -4.78177 7.0282
36 3 1 19.0917 -3.6676 6.74278
41 3 1 20.4048 -3.76735 7.3957
42 3 1 21.0201 -5.09432 7.25375
43 3 3 21.1604 -5.60828 6.10876
44 3 3 21.9247 -5.44138 8.24194
51 3 2 22.2592 -2.68516 7.41875
52 3 2 22.8499 -5.05915 8.33662
40 3 1 21.2724 -2.65875 7.11256
37 3 1 18.5559 -2.37339 6.85648
38 3 1 19.3855 -1.2897 6.70656
39 3 1 20.6029 -1.39775 7.26893
48 3 2 17.5407 -2.19433 6.46061
49 3 2 18.8804 -0.312453 6.8856
50 3 2 21.209 -0.546505 7.37065
55 4 3 5.57946 17.4496 9.0787
69 4 2 5.75273 20.5985 9.51479
59 4 1 7.59987 21.516 9.26984
72 4 2 10.1268 19.8035 9.26106
70 4 2 7.23822 22.5273 9.00689
71 4 2 9.66859 22.264 9.43028
11 2 1 -12.4842 -22.9368 12.9926
12 2 1 -11.2717 -22.5826 12.1911
13 2 3 -11.039 -23.3222 11.1769
14 2 3 -10.1385 -22.1829 12.8513
24 2 2 -13.3744 -23.1458 12.3814
26 2 2 -12.1913 -23.8111 13.6161
21 2 1 -7.46327 -22.6116 14.0383
22 2 3 -7.12079 -23.7273 13.504
23 2 3 -7.01007 -22.4898 15.3676
31 2 2 -6.08431 -22.1175 15.3866
25 2 2 -12.6553 -22.0703 13.7877
27 2 2 -10.1526 -20.4002 10.8878
20 2 1 -7.86003 -21.4839 13.2361
16 2 1 -9.40724 -20.2946 11.7512
28 2 2 -8.74075 -18.5106 10.9835
15 2 1 -9.03007 -21.4943 12.3851
17 2 1 -8.35505 -19.4515 11.3613
18 2 1 -7.1504 -19.4921 11.9752
19 2 1 -6.77882 -20.698 12.6375
29 2 2 -6.39923 -18.8903 11.5063
30 2 2 -5.89859 -20.5655 13.2195
1 1 1 18.1432 7.55897 14.8869
2 1 1 19.2674 7.99017 15.3966
3 1 1 20.2984 8.75562 14.6831
7 1 2 17.5132 6.98326 15.4769
5 1 4 19.8583 9.83147 13.8215
10 1 2 19.7941 9.65537 12.811
4 1 3 21.4761 8.36619 14.7043
6 1 2 17.9384 7.70937 13.8089
9 1 2 19.9059 10.8274 14.203
66 4 2 3.55343 16.5325 10.4294
68 4 2 5.12661 15.9266 11.4476
54 4 1 5.22114 17.8077 10.2383
53 4 1 4.45018 16.7945 11.1026
56 4 3 6.27012 18.5394 10.998
57 4 1 7.19751 19.3327 10.301
58 4 1 6.7365 20.6257 9.94038
60 4 1 8.87766 21.4611 9.75413
62 4 1 8.54353 19.3294 10.8206
67 4 2 4.18687 17.381 12.0135
63 4 1 9.24013 18.1297 11.3932
61 4 1 9.44844 20.2049 10.0548
64 4 3 9.38888 17.1367 10.6306
65 4 3 10.2976 18.3923 12.2692
73 4 2 10.0789 18.908 13.1313
8 1 2 19.4437 7.7145 16.4502
ITEM: TIMESTEP
4800
ITEM: NUMBER OF ATOMS
115
ITEM: BOX BOUNDS pp pp pp
-2.8628399999999999e+01 2.8628399999999999e+01
-2.8628399999999999e+01 2.8628399999999999e+01
-2.8628399999999999e+01 2.8628399999999999e+01
ITEM: ATOMS id mol type x y z
74 5 1 13.1691 -12.4937 -13.3931
75 5 1 13.7536 -11.1141 -13.1379
76 5 3 13.9944 -10.4778 -14.1994
77 5 3 14.7269 -11.0606 -12.0956
78 5 1 15.4807 -9.94227 -11.7448
87 5 2 12.2696 -12.2258 -14.0074
88 5 2 12.805 -12.9779 -12.4704
89 5 2 13.8752 -13.0806 -13.957
83 5 1 16.7423 -10.1183 -11.0329
84 5 1 17.5628 -11.3788 -11.1973
85 5 3 17.8724 -11.6678 -12.3989
86 5 3 18.731 -11.5122 -10.4014
94 5 2 18.8411 -11.3046 -9.42055
79 5 1 14.8307 -8.68092 -11.4882
80 5 1 15.5316 -7.62435 -10.8956
90 5 2 13.9938 -8.47312 -12.177
91 5 2 14.9556 -6.8314 -10.4895
81 5 1 16.7147 -7.88744 -10.2402
82 5 1 17.4753 -8.95416 -10.8946
92 5 2 17.1757 -6.97454 -9.94515
93 5 2 18.0586 -8.67565 -11.7285
97 6 3 17.2599 17.6982 -9.99134
95 6 1 15.298 17.63 -8.73692
108 6 2 14.6667 17.6083 -9.64227
109 6 2 14.7942 18.2746 -7.95007
110 6 2 15.3639 16.6012 -8.35205
96 6 1 16.5875 18.1674 -9.06182
98 6 3 17.3258 18.6 -7.95996
99 6 1 18.3511 19.5512 -7.84795
100 6 1 18.0734 20.759 -8.4784
101 6 1 18.9512 21.7776 -8.40147
102 6 1 19.6028 21.9713 -7.14425
103 6 1 19.837 20.6885 -6.48256
104 6 1 18.9406 19.6152 -6.52624
105 6 1 19.4117 18.3609 -5.82877
106 6 3 18.7082 17.3909 -5.41851
107 6 3 20.7334 17.9632 -6.15698
111 6 2 17.6392 20.6407 -9.49917
114 6 2 20.3989 20.8151 -5.63628
115 6 2 21.1797 17.1305 -5.75338
112 6 2 18.6323 22.6155 -8.95166
113 6 2 20.4285 22.6842 -7.05257
45 3 2 15.1875 -6.12158 6.52187
32 3 1 16.2504 -6.1657 6.9905
46 3 2 16.2304 -6.10959 8.1338
47 3 2 16.7619 -7.10868 6.57384
33 3 1 17.0257 -4.95158 6.49572
34 3 3 16.8695 -4.87739 5.23679
35 3 3 18.3082 -4.81774 6.98222
36 3 1 19.106 -3.63701 6.76835
41 3 1 20.4246 -3.71054 7.27329
42 3 1 21.0456 -5.01593 7.27969
43 3 3 21.1289 -5.53224 6.14216
44 3 3 21.9431 -5.42779 8.29776
51 3 2 22.1708 -2.61213 7.52535
52 3 2 22.7457 -4.87167 8.52967
40 3 1 21.2141 -2.58946 7.07592
37 3 1 18.5012 -2.37179 6.8867
38 3 1 19.3048 -1.19263 6.74905
39 3 1 20.6445 -1.31203 7.23473
48 3 2 17.4636 -2.23033 6.48278
49 3 2 18.7322 -0.27533 6.87645
50 3 2 21.4043 -0.564605 7.08254
55 4 3 5.52355 17.5883 9.0675
69 4 2 5.63619 20.7208 9.6225
59 4 1 7.57793 21.5331 9.3203
72 4 2 9.65811 19.5999 9.03573
70 4 2 7.21994 22.4868 8.99081
71 4 2 9.76358 22.0731 9.35675
11 2 1 -12.4178 -22.8976 12.9762
12 2 1 -11.2405 -22.493 12.09
13 2 3 -10.9347 -23.3176 11.1387
14 2 3 -10.1163 -22.1268 12.8236
24 2 2 -13.2804 -23.1449 12.2624
26 2 2 -12.1426 -23.8227 13.4704
21 2 1 -7.52248 -22.5395 14.1161
22 2 3 -7.10487 -23.5979 13.5281
23 2 3 -6.93123 -22.3526 15.3767
31 2 2 -5.90851 -22.1819 15.4651
25 2 2 -12.6923 -22.1649 13.7368
27 2 2 -10.2834 -20.261 11.1409
20 2 1 -7.85643 -21.427 13.1918
16 2 1 -9.32404 -20.3252 11.6628
28 2 2 -8.80995 -18.4594 11.0121
15 2 1 -8.95949 -21.5328 12.3071
17 2 1 -8.33803 -19.4288 11.2702
18 2 1 -7.14921 -19.5034 12.0232
19 2 1 -6.74588 -20.6728 12.6964
29 2 2 -6.35097 -18.8934 11.5821
30 2 2 -5.85632 -20.6142 13.3006
1 1 1 18.1002 7.53819 14.9063
2 1 1 19.2356 7.97429 15.4623
3 1 1 20.2924 8.72341 14.7136
7 1 2 17.2859 7.05254 15.4799
5 1 4 20.0049 9.94172 13.9081
10 1 2 19.8379 9.83366 12.8796
4 1 3 21.4921 8.37702 14.7157
6 1 2 17.9262 7.74371 13.9529
9 1 2 20.0063 10.9347 14.2262
66 4 2 3.53389 16.6104 10.51
68 4 2 5.03275 16.0163 11.4291
54 4 1 5.2888 17.8623 10.247
53 4 1 4.41186 16.8657 11.0847
56 4 3 6.31685 18.5334 10.9386
57 4 1 7.2166 19.3887 10.3378
58 4 1 6.66575 20.6501 9.8763
60 4 1 8.98506 21.4384 9.72121
62 4 1 8.60722 19.383 10.7945
67 4 2 4.17453 17.4498 12.0071
63 4 1 9.28043 18.2139 11.3381
61 4 1 9.39807 20.0997 9.97538
64 4 3 9.41613 17.1731 10.5762
65 4 3 10.2604 18.4601 12.3014
73 4 2 10.0773 18.8594 13.1774
8 1 2 19.2805 7.95282 16.5213
ITEM: TIMESTEP
4820
ITEM: NUMBER OF ATOMS
115
ITEM: BOX BOUNDS pp pp pp
-2.8628399999999999e+01 2.8628399999999999e+01
-2.8628399999999999e+01 2.8628399999999999e+01
-2.8628399999999999e+01 2.8628399999999999e+01
ITEM: ATOMS id mol type x y z
74 5 1 13.2249 -12.4363 -13.3505
75 5 1 13.7742 -11.0833 -13.1711
76 5 3 14.0084 -10.425 -14.1987
77 5 3 14.712 -11.0363 -12.0979
78 5 1 15.4484 -9.93258 -11.7089
87 5 2 12.2784 -12.4953 -13.9581
88 5 2 12.9976 -12.8295 -12.3604
89 5 2 14.0177 -13.0048 -13.8825
83 5 1 16.6708 -10.161 -10.9469
84 5 1 17.5829 -11.3391 -11.2442
85 5 3 17.9394 -11.6301 -12.4101
86 5 3 18.5975 -11.5439 -10.3646
94 5 2 18.2672 -11.3563 -9.38605
79 5 1 14.7629 -8.62055 -11.4464
80 5 1 15.5771 -7.58004 -10.9523
90 5 2 14.078 -8.33652 -12.2471
91 5 2 15.0377 -6.71623 -10.6367
81 5 1 16.718 -7.90866 -10.2088
82 5 1 17.4343 -8.97074 -10.7334
92 5 2 17.3685 -7.04567 -9.7595
93 5 2 18.0467 -8.60927 -11.4872
97 6 3 17.2635 17.7373 -10.0864
95 6 1 15.2808 17.5943 -8.7595
108 6 2 14.7083 17.5331 -9.69355
109 6 2 14.8016 18.3411 -8.06415
110 6 2 15.295 16.6437 -8.31676
96 6 1 16.6351 18.1597 -9.05412
98 6 3 17.2207 18.5903 -7.85542
99 6 1 18.335 19.4545 -7.88453
100 6 1 17.9497 20.742 -8.46999
101 6 1 18.9411 21.7162 -8.42646
102 6 1 19.4962 21.8306 -7.15893
103 6 1 19.9374 20.6888 -6.53664
104 6 1 19.0332 19.5451 -6.60367
105 6 1 19.4994 18.3569 -5.85145
106 6 3 18.7046 17.464 -5.41627
107 6 3 20.6935 17.8657 -6.26158
111 6 2 17.2772 20.7276 -9.36525
114 6 2 20.4286 20.8608 -5.53394
115 6 2 21.2062 17.1739 -5.64227
112 6 2 18.7645 22.626 -8.89689
113 6 2 20.1891 22.6221 -6.97737
45 3 2 15.2273 -6.21386 6.63896
32 3 1 16.2461 -6.13749 7.07602
46 3 2 16.196 -5.99799 8.13793
47 3 2 16.7609 -7.04623 6.75383
33 3 1 16.9968 -4.96027 6.52892
34 3 3 16.8567 -4.84132 5.26547
35 3 3 18.344 -4.7179 6.9095
36 3 1 19.1223 -3.53896 6.77702
41 3 1 20.4365 -3.64155 7.31972
42 3 1 21.1065 -5.01107 7.29897
43 3 3 21.2933 -5.58878 6.15791
44 3 3 21.9099 -5.44356 8.34652
51 3 2 22.2541 -2.39744 7.3611
52 3 2 22.6664 -4.90957 8.71595
40 3 1 21.2524 -2.42848 7.04996
37 3 1 18.4729 -2.31856 6.93921
38 3 1 19.262 -1.14945 6.91467
39 3 1 20.6056 -1.15427 7.18309
48 3 2 17.493 -2.12676 6.50394
49 3 2 18.7261 -0.306476 7.13844
50 3 2 21.2121 -0.378157 6.73365
55 4 3 5.37442 17.6587 9.11264
69 4 2 5.86589 20.528 9.30464
59 4 1 7.62902 21.5293 9.34722
72 4 2 9.74502 19.6857 9.06743
70 4 2 7.21529 22.5449 9.26123
71 4 2 9.65596 22.0348 9.16859
11 2 1 -12.3567 -22.8617 12.8663
12 2 1 -11.1027 -22.5917 12.1402
13 2 3 -10.9716 -23.3187 11.1013
14 2 3 -10.0407 -22.1841 12.8326
24 2 2 -13.1655 -23.0895 12.0797
26 2 2 -12.2097 -23.7757 13.4894
21 2 1 -7.54352 -22.6073 14.1134
22 2 3 -7.02844 -23.6415 13.5296
23 2 3 -6.83739 -22.3063 15.3318
31 2 2 -5.92574 -21.8401 15.384
25 2 2 -12.5342 -21.9905 13.4923
27 2 2 -10.1117 -20.4184 11.0007
20 2 1 -7.89596 -21.3837 13.2611
16 2 1 -9.37424 -20.2505 11.7111
28 2 2 -8.59301 -18.5894 10.687
15 2 1 -8.97773 -21.4945 12.3351
17 2 1 -8.28851 -19.4378 11.2594
18 2 1 -7.11886 -19.3842 12.0197
19 2 1 -6.8241 -20.5952 12.6711
29 2 2 -6.29635 -18.7718 11.5397
30 2 2 -5.90004 -20.4686 13.2317
1 1 1 18.136 7.47806 14.8926
2 1 1 19.2955 8.08335 15.3709
3 1 1 20.3188 8.70191 14.6902
7 1 2 17.4912 6.93162 15.5284
5 1 4 20.0753 9.89369 14.0001
10 1 2 20.0475 9.8869 12.9353
4 1 3 21.4791 8.29294 14.6713
6 1 2 17.8637 7.65261 13.8832
9 1 2 20.0199 10.7406 14.4335
66 4 2 3.47879 16.7469 10.4223
68 4 2 4.96508 16.1497 11.2967
54 4 1 5.29518 17.9785 10.3116
53 4 1 4.35595 17.0476 11.1216
56 4 3 6.37741 18.4971 10.9707
57 4 1 7.2213 19.4442 10.4146
58 4 1 6.72167 20.6588 9.89797
60 4 1 8.93109 21.4781 9.72984
62 4 1 8.55746 19.4392 10.8696
67 4 2 4.12399 17.5102 12.1642
63 4 1 9.21821 18.1749 11.3693
61 4 1 9.38939 20.15 9.96493
64 4 3 9.42098 17.2555 10.5031
65 4 3 10.2478 18.4149 12.2959
73 4 2 10.1955 19.159 12.9912
8 1 2 19.4607 7.92321 16.4435
ITEM: TIMESTEP
4840
ITEM: NUMBER OF ATOMS
115
ITEM: BOX BOUNDS pp pp pp
-2.8628399999999999e+01 2.8628399999999999e+01
-2.8628399999999999e+01 2.8628399999999999e+01
-2.8628399999999999e+01 2.8628399999999999e+01
ITEM: ATOMS id mol type x y z
74 5 1 13.2231 -12.506 -13.3405
75 5 1 13.8456 -11.1574 -13.1665
76 5 3 14.0312 -10.4806 -14.2022
77 5 3 14.7158 -10.9494 -12.063
78 5 1 15.4955 -9.86249 -11.7365
87 5 2 12.3544 -12.5052 -14.0849
88 5 2 12.7782 -12.8596 -12.3193
89 5 2 13.9777 -13.2722 -13.7867
83 5 1 16.7073 -10.093 -11.0313
84 5 1 17.5016 -11.3204 -11.2699
85 5 3 17.9169 -11.639 -12.4209
86 5 3 18.4982 -11.5373 -10.2861
94 5 2 18.3862 -11.2871 -9.34341
79 5 1 14.8684 -8.64116 -11.4239
80 5 1 15.5926 -7.53152 -10.9711
90 5 2 13.9364 -8.3754 -11.9147
91 5 2 15.0312 -6.65084 -10.7531
81 5 1 16.6678 -7.86136 -10.1721
82 5 1 17.464 -8.95618 -10.6672
92 5 2 17.221 -7.11236 -9.58614
93 5 2 18.3523 -8.70696 -11.237
97 6 3 17.2121 17.7822 -10.097
95 6 1 15.1933 17.5363 -8.87313
108 6 2 14.6595 17.2191 -9.83644
109 6 2 14.5887 18.2165 -8.25338
110 6 2 15.4434 16.5841 -8.31811
96 6 1 16.5696 18.1568 -9.10214
98 6 3 17.2354 18.5449 -7.96602
99 6 1 18.2396 19.5046 -7.8293
100 6 1 18.0392 20.6906 -8.50854
101 6 1 18.8639 21.7832 -8.3652
102 6 1 19.4627 21.9253 -7.15389
103 6 1 19.9084 20.6741 -6.54918
104 6 1 19.0248 19.5244 -6.65985
105 6 1 19.5121 18.2871 -5.88138
106 6 3 18.6087 17.5359 -5.43508
107 6 3 20.7392 17.6857 -6.19841
111 6 2 17.4476 20.5812 -9.3971
114 6 2 20.5399 20.6741 -5.69678
115 6 2 21.1714 17.0047 -5.61191
112 6 2 18.6857 22.6724 -8.94234
113 6 2 20.0388 22.8328 -7.09153
45 3 2 15.3216 -6.05991 6.99601
32 3 1 16.3389 -6.07178 7.20492
46 3 2 16.4894 -5.87536 8.32933
47 3 2 16.7523 -7.06074 6.93079
33 3 1 17.0786 -4.96752 6.47044
34 3 3 16.7513 -4.8 5.21964
35 3 3 18.3289 -4.63472 6.9483
36 3 1 19.0904 -3.48766 6.76133
41 3 1 20.452 -3.58053 7.24074
42 3 1 21.2281 -4.89781 7.17153
43 3 3 21.299 -5.59468 6.16673
44 3 3 21.9278 -5.3997 8.30411
51 3 2 22.2555 -2.34777 7.48489
52 3 2 22.6901 -4.89984 8.68827
40 3 1 21.2553 -2.38807 7.11308
37 3 1 18.4779 -2.1999 7.06458
38 3 1 19.2201 -1.00505 6.92091
39 3 1 20.6057 -1.117 7.09379
48 3 2 17.4764 -2.03117 6.7852
49 3 2 18.7149 -0.0468711 7.22009
50 3 2 21.2763 -0.261844 6.93206
55 4 3 5.38161 17.7436 9.11957
69 4 2 5.68001 20.678 9.62414
59 4 1 7.6171 21.6067 9.38659
72 4 2 9.86396 19.7672 9.08338
70 4 2 7.28385 22.5797 9.01861
71 4 2 9.65394 22.1889 9.24333
11 2 1 -12.4459 -22.7746 12.8346
12 2 1 -11.2125 -22.6122 12.0913
13 2 3 -10.9772 -23.3023 11.0087
14 2 3 -10.0878 -22.1698 12.8448
24 2 2 -13.3188 -22.6867 12.1917
26 2 2 -12.386 -23.7599 13.3239
21 2 1 -7.37428 -22.6272 14.0664
22 2 3 -6.97811 -23.7055 13.5663
23 2 3 -6.81082 -22.2055 15.189
31 2 2 -5.94279 -21.7186 15.1816
25 2 2 -12.4474 -21.9827 13.6915
27 2 2 -10.2567 -20.1984 11.0158
20 2 1 -7.7832 -21.3962 13.2322
16 2 1 -9.38654 -20.1504 11.6808
28 2 2 -8.59221 -18.5161 10.8009
15 2 1 -9.02207 -21.3639 12.4316
17 2 1 -8.31691 -19.4142 11.2234
18 2 1 -7.16934 -19.3817 12.019
19 2 1 -6.77667 -20.5381 12.763
29 2 2 -6.4525 -18.7249 11.6781
30 2 2 -5.82735 -20.4322 13.2933
1 1 1 18.1607 7.44679 14.9171
2 1 1 19.2715 8.01186 15.4513
3 1 1 20.3186 8.63389 14.5267
7 1 2 17.3311 7.03012 15.5088
5 1 4 20.108 9.97801 14.0316
10 1 2 20.7001 10.3787 13.2729
4 1 3 21.506 8.24684 14.6464
6 1 2 18.089 7.31177 13.7619
9 1 2 19.8736 10.7058 14.7571
66 4 2 3.38013 17.1094 10.5623
68 4 2 4.74967 16.1247 11.2621
54 4 1 5.23392 17.9637 10.3321
53 4 1 4.31227 17.1688 11.1885
56 4 3 6.37211 18.4916 10.9567
57 4 1 7.27693 19.419 10.3515
58 4 1 6.70569 20.6101 9.87162
60 4 1 8.94915 21.5161 9.7008
62 4 1 8.62852 19.4511 10.8216
67 4 2 4.26746 17.6448 12.2152
63 4 1 9.26053 18.1883 11.3481
61 4 1 9.46707 20.2105 9.98693
64 4 3 9.41296 17.2675 10.5175
65 4 3 10.232 18.3302 12.3234
73 4 2 10.1331 19.0279 13.086
8 1 2 19.321 8.03431 16.5229
ITEM: TIMESTEP
4860
ITEM: NUMBER OF ATOMS
115
ITEM: BOX BOUNDS pp pp pp
-2.8628399999999999e+01 2.8628399999999999e+01
-2.8628399999999999e+01 2.8628399999999999e+01
-2.8628399999999999e+01 2.8628399999999999e+01
ITEM: ATOMS id mol type x y z
74 5 1 13.2043 -12.5146 -13.2856
75 5 1 13.8211 -11.1053 -13.1701
76 5 3 14.2059 -10.6048 -14.261
77 5 3 14.7838 -10.9641 -12.155
78 5 1 15.5571 -9.81889 -11.8678
87 5 2 12.3653 -12.5225 -13.9979
88 5 2 12.8711 -12.9515 -12.3635
89 5 2 13.9672 -13.1337 -13.7404
83 5 1 16.7706 -10.08 -11.0282
84 5 1 17.5618 -11.3603 -11.1613
85 5 3 17.7974 -11.6571 -12.3664
86 5 3 18.5243 -11.6142 -10.2173
94 5 2 18.3026 -11.5501 -9.268
79 5 1 14.8702 -8.63562 -11.4493
80 5 1 15.5862 -7.50056 -11.0129
90 5 2 14.0175 -8.36129 -11.9333
91 5 2 14.9921 -6.62274 -10.7717
81 5 1 16.6876 -7.81124 -10.1923
82 5 1 17.4912 -8.86837 -10.6287
92 5 2 17.3026 -7.12676 -9.83254
93 5 2 18.2633 -8.55209 -11.3553
97 6 3 17.1305 17.649 -10.0649
95 6 1 15.2228 17.3831 -8.81404
108 6 2 14.6656 17.1254 -9.71833
109 6 2 14.5738 17.9744 -8.15348
110 6 2 15.5428 16.4165 -8.35712
96 6 1 16.4685 18.1552 -9.138
98 6 3 17.1537 18.4795 -7.94799
99 6 1 18.2917 19.4269 -7.86211
100 6 1 17.9918 20.7129 -8.58399
101 6 1 18.8552 21.825 -8.38053
102 6 1 19.539 21.8808 -7.13921
103 6 1 19.9516 20.7292 -6.50355
104 6 1 19.067 19.5239 -6.58876
105 6 1 19.4722 18.2691 -5.83193
106 6 3 18.5806 17.5427 -5.3557
107 6 3 20.7611 17.6284 -6.12387
111 6 2 17.5636 20.5537 -9.56591
114 6 2 20.415 20.8274 -5.58092
115 6 2 20.9101 16.7532 -5.73658
112 6 2 18.6011 22.7909 -8.76487
113 6 2 20.1931 22.7933 -7.11469
45 3 2 15.2249 -6.00599 7.13545
32 3 1 16.3866 -6.04005 7.19552
46 3 2 16.7356 -5.91738 8.19455
47 3 2 16.8093 -6.98417 6.75399
33 3 1 16.9511 -4.92044 6.46245
34 3 3 16.7182 -4.87275 5.224
35 3 3 18.2114 -4.58515 6.97369
36 3 1 19.0307 -3.38193 6.76625
41 3 1 20.4414 -3.53065 7.24639
42 3 1 21.1291 -4.88118 7.15076
43 3 3 21.3508 -5.52605 6.12666
44 3 3 21.9704 -5.30902 8.23575
51 3 2 22.2094 -2.41183 7.36446
52 3 2 22.5199 -4.62099 8.81657
40 3 1 21.2189 -2.42265 7.00882
37 3 1 18.4306 -2.1257 7.13934
38 3 1 19.2505 -1.00292 6.95159
39 3 1 20.6022 -1.18417 7.21619
48 3 2 17.3586 -1.93012 6.92452
49 3 2 18.7593 -0.0429121 7.31698
50 3 2 21.2105 -0.30758 7.09267
55 4 3 5.3422 17.6693 9.13021
69 4 2 5.77025 20.755 9.42732
59 4 1 7.63125 21.6073 9.35701
72 4 2 10.0317 19.8359 9.21089
70 4 2 7.1933 22.5744 9.30437
71 4 2 9.63299 22.2438 9.37782
11 2 1 -12.4596 -22.7794 12.8155
12 2 1 -11.1902 -22.551 12.0968
13 2 3 -10.968 -23.2857 11.0479
14 2 3 -10.0331 -22.2448 12.836
24 2 2 -13.2379 -22.6736 12.0574
26 2 2 -12.5168 -23.7364 13.3681
21 2 1 -7.30425 -22.5855 13.9913
22 2 3 -6.94137 -23.7249 13.5566
23 2 3 -6.69949 -22.1346 15.2345
31 2 2 -5.67763 -21.9038 15.3197
25 2 2 -12.6023 -21.9802 13.6988
27 2 2 -10.2389 -20.0472 11.0898
20 2 1 -7.86084 -21.423 13.1273
16 2 1 -9.32538 -20.1717 11.693
28 2 2 -8.55629 -18.5563 10.499
15 2 1 -9.05661 -21.4305 12.3635
17 2 1 -8.26555 -19.4129 11.1636
18 2 1 -7.13746 -19.3523 11.9822
19 2 1 -6.82331 -20.4995 12.7669
29 2 2 -6.35444 -18.8788 11.4592
30 2 2 -5.93268 -20.4118 13.3186
1 1 1 18.1217 7.40551 14.8762
2 1 1 19.2123 7.97405 15.3082
3 1 1 20.3324 8.6425 14.5722
7 1 2 17.3842 7.00763 15.5635
5 1 4 20.2209 10.0232 14.1557
10 1 2 20.8069 10.4145 13.4091
4 1 3 21.4993 8.16385 14.6929
6 1 2 17.8715 7.26528 13.8701
9 1 2 19.7694 10.7386 14.7367
66 4 2 3.27297 17.0487 10.8032
68 4 2 4.78869 16.1313 11.3281
54 4 1 5.21372 17.9951 10.329
53 4 1 4.33053 17.1405 11.2142
56 4 3 6.38291 18.521 11.024
57 4 1 7.29432 19.3656 10.3238
58 4 1 6.75813 20.6359 9.89676
60 4 1 8.95527 21.5594 9.77891
62 4 1 8.56534 19.4017 10.8274
67 4 2 4.35233 17.6377 12.1951
63 4 1 9.2365 18.1435 11.2943
61 4 1 9.48726 20.2716 10.0741
64 4 3 9.46366 17.2594 10.4308
65 4 3 10.1554 18.2672 12.3168
73 4 2 9.83241 18.7126 13.1915
8 1 2 19.3535 7.99563 16.3585
ITEM: TIMESTEP
4880
ITEM: NUMBER OF ATOMS
115
ITEM: BOX BOUNDS pp pp pp
-2.8628399999999999e+01 2.8628399999999999e+01
-2.8628399999999999e+01 2.8628399999999999e+01
-2.8628399999999999e+01 2.8628399999999999e+01
ITEM: ATOMS id mol type x y z
74 5 1 13.198 -12.4083 -13.3034
75 5 1 13.8704 -11.1074 -13.1802
76 5 3 14.2105 -10.6224 -14.2731
77 5 3 14.8367 -10.9637 -12.1678
78 5 1 15.5671 -9.80769 -11.815
87 5 2 12.29 -12.4038 -13.9685
88 5 2 12.725 -12.6536 -12.3061
89 5 2 13.8232 -13.1828 -13.6467
83 5 1 16.7878 -10.0475 -11.0844
84 5 1 17.539 -11.3392 -11.1182
85 5 3 17.8492 -11.7481 -12.276
86 5 3 18.5808 -11.6965 -10.2498
94 5 2 18.4609 -11.5341 -9.21786
79 5 1 14.8874 -8.59033 -11.5045
80 5 1 15.622 -7.51903 -11.0257
90 5 2 14.0612 -8.28517 -12.107
91 5 2 15.0124 -6.68969 -10.7578
81 5 1 16.6949 -7.83598 -10.1971
82 5 1 17.4908 -8.87068 -10.7637
92 5 2 17.2779 -7.04541 -9.64885
93 5 2 18.3069 -8.62375 -11.382
97 6 3 17.0726 17.5007 -10.0192
95 6 1 15.2375 17.3489 -8.61295
108 6 2 14.5692 17.281 -9.52616
109 6 2 14.7173 17.9675 -7.78608
110 6 2 15.3698 16.3546 -8.24968
96 6 1 16.5012 18.0191 -9.00091
98 6 3 17.218 18.4566 -7.87638
99 6 1 18.309 19.3846 -7.87965
100 6 1 18.1008 20.5856 -8.58738
101 6 1 18.917 21.7196 -8.3218
102 6 1 19.5505 21.9648 -7.13359
103 6 1 19.8814 20.738 -6.55008
104 6 1 19.0276 19.5869 -6.66607
105 6 1 19.4678 18.3417 -5.89979
106 6 3 18.5913 17.6727 -5.34517
107 6 3 20.6562 17.6547 -6.12064
111 6 2 17.6671 20.4864 -9.54803
114 6 2 20.4732 20.7296 -5.63217
115 6 2 20.6135 16.6431 -6.06301
112 6 2 18.5779 22.6699 -8.80453
113 6 2 20.22 22.7987 -7.21849
45 3 2 15.2941 -6.09659 6.81527
32 3 1 16.3832 -6.02947 7.07606
46 3 2 16.4785 -6.07823 8.18475
47 3 2 16.8139 -6.93331 6.64974
33 3 1 16.9407 -4.82816 6.42821
34 3 3 16.7358 -4.82678 5.17197
35 3 3 18.2175 -4.54129 6.90288
36 3 1 18.9679 -3.38012 6.88422
41 3 1 20.3833 -3.48128 7.25666
42 3 1 21.0545 -4.85849 7.20179
43 3 3 21.3321 -5.34405 6.10364
44 3 3 22.0267 -5.25302 8.19647
51 3 2 22.2156 -2.4521 7.16215
52 3 2 22.4594 -4.49386 8.62652
40 3 1 21.2207 -2.39611 6.99955
37 3 1 18.4361 -2.1202 7.13497
38 3 1 19.3222 -0.991655 6.92659
39 3 1 20.6733 -1.12923 7.23004
48 3 2 17.5131 -1.95043 6.80558
49 3 2 18.9358 -0.0540526 7.0951
50 3 2 21.2966 -0.286995 7.03517
55 4 3 5.33529 17.6106 9.15422
69 4 2 5.69629 20.8109 9.48488
59 4 1 7.65914 21.5412 9.27992
72 4 2 10.0786 19.8316 9.37995
70 4 2 7.22253 22.4524 8.92109
71 4 2 9.69775 22.2787 9.58312
11 2 1 -12.4454 -22.819 12.7976
12 2 1 -11.1703 -22.5146 12.0564
13 2 3 -11.0722 -23.3234 11.1073
14 2 3 -10.046 -22.228 12.8216
24 2 2 -13.2685 -22.8045 12.0519
26 2 2 -12.4188 -23.7742 13.3528
21 2 1 -7.28142 -22.5389 14.0238
22 2 3 -6.95631 -23.6724 13.5438
23 2 3 -6.69201 -22.1511 15.2267
31 2 2 -5.71492 -22.3612 15.3684
25 2 2 -12.5743 -22.0551 13.5364
27 2 2 -10.1977 -20.2408 11.0939
20 2 1 -7.78089 -21.4106 13.1638
16 2 1 -9.34014 -20.2404 11.7422
28 2 2 -8.65192 -18.5043 10.7061
15 2 1 -8.94796 -21.5269 12.2753
17 2 1 -8.27394 -19.4159 11.1712
18 2 1 -7.16348 -19.385 12.0453
19 2 1 -6.8009 -20.585 12.645
29 2 2 -6.32045 -18.6951 11.7145
30 2 2 -5.9324 -20.4349 13.2631
1 1 1 18.0669 7.47503 14.8273
2 1 1 19.2217 7.97074 15.3418
3 1 1 20.3006 8.59012 14.5176
7 1 2 17.4212 6.96911 15.4721
5 1 4 20.1572 9.98849 14.2753
10 1 2 20.6063 10.3361 13.422
4 1 3 21.4852 8.20495 14.7091
6 1 2 17.8536 7.49214 13.7943
9 1 2 20.1404 10.6495 15.0931
66 4 2 3.43583 16.7974 10.6097
68 4 2 4.87002 16.1064 11.4559
54 4 1 5.22273 17.988 10.3537
53 4 1 4.3707 17.1123 11.1971
56 4 3 6.29799 18.5504 10.8591
57 4 1 7.24867 19.4968 10.3321
58 4 1 6.72648 20.6873 9.88101
60 4 1 8.95023 21.5857 9.90552
62 4 1 8.5994 19.4731 10.8269
67 4 2 4.04924 17.6136 12.1525
63 4 1 9.30324 18.1767 11.2499
61 4 1 9.52453 20.2811 10.2106
64 4 3 9.51713 17.2342 10.397
65 4 3 10.1058 18.2228 12.4308
73 4 2 9.84246 18.7068 13.2821
8 1 2 19.2854 7.96642 16.353
ITEM: TIMESTEP
4900
ITEM: NUMBER OF ATOMS
115
ITEM: BOX BOUNDS pp pp pp
-2.8628399999999999e+01 2.8628399999999999e+01
-2.8628399999999999e+01 2.8628399999999999e+01
-2.8628399999999999e+01 2.8628399999999999e+01
ITEM: ATOMS id mol type x y z
74 5 1 13.1245 -12.3521 -13.3234
75 5 1 13.8733 -11.0424 -13.2679
76 5 3 14.187 -10.5065 -14.3758
77 5 3 14.8035 -11.0147 -12.1342
78 5 1 15.6394 -9.90181 -11.7675
87 5 2 12.1781 -12.308 -14.0155
88 5 2 12.7013 -12.6365 -12.2983
89 5 2 13.8196 -13.1377 -13.7837
83 5 1 16.8044 -10.1197 -10.9609
84 5 1 17.5928 -11.4359 -11.1273
85 5 3 17.9429 -11.8136 -12.3036
86 5 3 18.5733 -11.7061 -10.174
94 5 2 18.3809 -11.6763 -9.22353
79 5 1 14.895 -8.70084 -11.5799
80 5 1 15.5567 -7.55818 -11.0078
90 5 2 14.1391 -8.43414 -12.2885
91 5 2 14.9509 -6.82558 -10.5784
81 5 1 16.6806 -7.81673 -10.295
82 5 1 17.5211 -8.89022 -10.7391
92 5 2 17.2038 -6.94665 -9.86265
93 5 2 18.2222 -8.59981 -11.5243
97 6 3 17.1066 17.4805 -9.93754
95 6 1 15.1854 17.3913 -8.46868
108 6 2 14.5821 17.0685 -9.32419
109 6 2 14.6993 18.1331 -7.89871
110 6 2 15.3906 16.539 -7.79175
96 6 1 16.5518 17.9689 -8.92695
98 6 3 17.3307 18.4894 -7.86617
99 6 1 18.3636 19.4875 -7.911
100 6 1 18.0148 20.6957 -8.59237
101 6 1 18.8698 21.7495 -8.45673
102 6 1 19.4413 21.9128 -7.12392
103 6 1 19.896 20.7332 -6.51795
104 6 1 19.0044 19.6124 -6.64652
105 6 1 19.4185 18.408 -5.84717
106 6 3 18.4443 17.7576 -5.36455
107 6 3 20.5708 17.7007 -6.2188
111 6 2 17.5917 20.5524 -9.65867
114 6 2 20.4473 20.8689 -5.48322
115 6 2 20.6055 16.6569 -6.1613
112 6 2 18.7075 22.6228 -8.97621
113 6 2 20.1555 22.7866 -7.13743
45 3 2 15.2369 -6.01232 6.58786
32 3 1 16.2844 -5.94821 7.0082
46 3 2 16.298 -5.94952 8.15029
47 3 2 16.8411 -6.86723 6.61323
33 3 1 16.9566 -4.82288 6.39508
34 3 3 16.7361 -4.78856 5.11063
35 3 3 18.1992 -4.52701 7.0339
36 3 1 19.0021 -3.4192 6.9373
41 3 1 20.3327 -3.55419 7.40299
42 3 1 21.0456 -4.87326 7.21685
43 3 3 21.2387 -5.24674 6.03002
44 3 3 22.0368 -5.12386 8.18787
51 3 2 22.2728 -2.50943 7.30384
52 3 2 22.8422 -4.47124 8.2478
40 3 1 21.1767 -2.4384 7.07723
37 3 1 18.4417 -2.1125 7.18225
38 3 1 19.2677 -0.988902 6.88723
39 3 1 20.6704 -1.10492 7.26109
48 3 2 17.3756 -1.94253 6.97227
49 3 2 18.8294 0.0399699 6.97836
50 3 2 21.317 -0.226717 6.98277
55 4 3 5.3687 17.5554 9.08222
69 4 2 5.76824 20.9233 9.53313
59 4 1 7.75408 21.559 9.26685
72 4 2 9.9964 20.002 9.23808
70 4 2 7.35849 22.569 9.0522
71 4 2 9.73562 22.4138 9.66315
11 2 1 -12.4122 -22.78 12.8643
12 2 1 -11.2407 -22.5898 12.041
13 2 3 -11.0991 -23.4046 11.0935
14 2 3 -10.0657 -22.2437 12.7673
24 2 2 -13.4194 -22.7849 12.3348
26 2 2 -12.2427 -23.763 13.3605
21 2 1 -7.36552 -22.5379 14.105
22 2 3 -7.08544 -23.6199 13.5351
23 2 3 -6.68719 -22.2224 15.2472
31 2 2 -5.72195 -21.8959 15.2842
25 2 2 -12.4395 -21.9797 13.6417
27 2 2 -10.1477 -20.3273 11.0397
20 2 1 -7.78063 -21.4231 13.1859
16 2 1 -9.3022 -20.3204 11.6378
28 2 2 -8.70522 -18.5199 10.8012
15 2 1 -8.93204 -21.499 12.3035
17 2 1 -8.32707 -19.443 11.2155
18 2 1 -7.25694 -19.3987 12.0324
19 2 1 -6.72137 -20.5632 12.6255
29 2 2 -6.55919 -18.6052 11.7779
30 2 2 -5.8436 -20.4159 13.2038
1 1 1 18.1251 7.55336 14.7839
2 1 1 19.2644 7.95849 15.3704
3 1 1 20.3604 8.57366 14.573
7 1 2 17.2331 7.2538 15.3892
5 1 4 20.0895 9.96859 14.37
10 1 2 20.359 10.4517 13.4592
4 1 3 21.6014 8.34883 14.6779
6 1 2 18.0732 7.48362 13.7194
9 1 2 19.8616 10.569 15.1621
66 4 2 3.5315 16.8383 10.6556
68 4 2 4.96422 16.0209 11.2991
54 4 1 5.22174 18.0314 10.281
53 4 1 4.44517 17.0794 11.1854
56 4 3 6.34545 18.5915 10.9222
57 4 1 7.28162 19.49 10.2853
58 4 1 6.7899 20.7559 9.92111
60 4 1 8.975 21.6202 9.86381
62 4 1 8.60457 19.4174 10.8255
67 4 2 4.17637 17.5249 12.1854
63 4 1 9.28327 18.1405 11.3351
61 4 1 9.48967 20.3461 10.1282
64 4 3 9.51255 17.2844 10.4632
65 4 3 10.114 18.1379 12.4266
73 4 2 9.87083 18.5807 13.2762
8 1 2 19.2386 8.14963 16.5059
ITEM: TIMESTEP
4920
ITEM: NUMBER OF ATOMS
115
ITEM: BOX BOUNDS pp pp pp
-2.8628399999999999e+01 2.8628399999999999e+01
-2.8628399999999999e+01 2.8628399999999999e+01
-2.8628399999999999e+01 2.8628399999999999e+01
ITEM: ATOMS id mol type x y z
74 5 1 13.0727 -12.2849 -13.2376
75 5 1 13.8688 -11.042 -13.1833
76 5 3 14.1747 -10.5514 -14.2972
77 5 3 14.8281 -11.0788 -12.2078
78 5 1 15.6182 -9.99777 -11.6976
87 5 2 12.2545 -12.0705 -13.9251
88 5 2 12.5977 -12.5585 -12.25
89 5 2 13.6562 -13.1129 -13.7288
83 5 1 16.8128 -10.1551 -10.973
84 5 1 17.6736 -11.3407 -11.1287
85 5 3 17.9735 -11.7823 -12.3014
86 5 3 18.4992 -11.6806 -10.0739
94 5 2 18.2045 -11.7516 -9.08383
79 5 1 14.8828 -8.8172 -11.5453
80 5 1 15.4545 -7.65921 -10.9276
90 5 2 13.9688 -8.5788 -12.1269
91 5 2 14.8177 -6.80291 -10.6325
81 5 1 16.7404 -7.85238 -10.3772
82 5 1 17.5427 -8.88491 -10.8818
92 5 2 17.256 -7.00046 -10.1009
93 5 2 18.107 -8.63082 -11.7318
97 6 3 17.1322 17.5254 -9.866
95 6 1 15.2004 17.3435 -8.40367
108 6 2 14.5575 17.0463 -9.28069
109 6 2 14.6399 18.1576 -7.87159
110 6 2 15.3554 16.4696 -7.74714
96 6 1 16.5048 17.965 -8.8577
98 6 3 17.3194 18.4846 -7.8659
99 6 1 18.2943 19.5151 -7.89652
100 6 1 18.0274 20.6698 -8.63513
101 6 1 18.8793 21.7683 -8.44497
102 6 1 19.4633 21.8778 -7.18296
103 6 1 19.8064 20.7369 -6.48188
104 6 1 18.9695 19.6483 -6.63184
105 6 1 19.3051 18.4375 -5.8737
106 6 3 18.4425 17.7269 -5.37373
107 6 3 20.4678 17.8265 -6.29647
111 6 2 17.5694 20.5245 -9.56827
114 6 2 20.2208 20.8774 -5.5317
115 6 2 20.6279 16.8129 -6.32933
112 6 2 18.4852 22.7787 -8.73174
113 6 2 19.9044 22.893 -6.85115
45 3 2 15.0845 -6.05856 6.80986
32 3 1 16.186 -6.00132 7.0526
46 3 2 16.3481 -5.91368 8.14139
47 3 2 16.6607 -6.96085 6.77114
33 3 1 16.9103 -4.84925 6.4187
34 3 3 16.9061 -4.76984 5.16865
35 3 3 18.1507 -4.55861 7.04202
36 3 1 19.0221 -3.41215 6.94761
41 3 1 20.3237 -3.58047 7.33862
42 3 1 21.0695 -4.87236 7.1852
43 3 3 21.2846 -5.28192 6.01976
44 3 3 22.0912 -5.12176 8.11501
51 3 2 22.1805 -2.42752 7.51047
52 3 2 23.1061 -5.05246 8.05694
40 3 1 21.154 -2.42161 7.14208
37 3 1 18.4144 -2.10884 7.16562
38 3 1 19.1888 -1.05284 6.9266
39 3 1 20.6061 -1.15819 7.25532
48 3 2 17.4012 -1.97465 6.74904
49 3 2 18.7803 -0.0557626 6.98582
50 3 2 21.1711 -0.239977 6.97882
55 4 3 5.42156 17.5408 9.18008
69 4 2 5.82037 20.8364 9.514
59 4 1 7.69903 21.7044 9.40351
72 4 2 9.94092 19.8679 9.17524
70 4 2 7.44972 22.5618 8.76855
71 4 2 9.76773 22.2581 9.56293
11 2 1 -12.4081 -22.801 12.9524
12 2 1 -11.2176 -22.6676 12.047
13 2 3 -11.1078 -23.457 11.0225
14 2 3 -10.0275 -22.2966 12.7665
24 2 2 -13.3386 -22.935 12.2921
26 2 2 -12.3118 -23.6943 13.6313
21 2 1 -7.32431 -22.4907 14.0824
22 2 3 -7.13736 -23.66 13.6011
23 2 3 -6.68725 -22.2329 15.2434
31 2 2 -5.9393 -21.6232 15.3844
25 2 2 -12.5709 -21.9613 13.627
27 2 2 -10.2837 -20.4377 10.991
20 2 1 -7.84031 -21.3533 13.1777
16 2 1 -9.41201 -20.3401 11.6773
28 2 2 -8.73408 -18.5964 10.6198
15 2 1 -8.96383 -21.5007 12.3625
17 2 1 -8.40216 -19.431 11.2668
18 2 1 -7.22706 -19.2876 12.0505
19 2 1 -6.80873 -20.5162 12.6273
29 2 2 -6.4977 -18.7445 11.6216
30 2 2 -5.91702 -20.5008 13.1852
1 1 1 18.2169 7.55286 14.7122
2 1 1 19.316 7.96721 15.3098
3 1 1 20.4181 8.67455 14.5694
7 1 2 17.322 7.1862 15.1928
5 1 4 20.1715 10.0255 14.3075
10 1 2 20.7803 10.5104 13.6192
4 1 3 21.6395 8.40987 14.725
6 1 2 18.1663 7.6529 13.6217
9 1 2 19.8071 10.6277 15.0545
66 4 2 3.40664 17.0556 10.8325
68 4 2 4.90682 16.2314 11.3016
54 4 1 5.24777 18.0116 10.3103
53 4 1 4.45285 17.1736 11.1729
56 4 3 6.34604 18.4766 10.8916
57 4 1 7.29836 19.4357 10.3484
58 4 1 6.77795 20.7318 9.99469
60 4 1 9.00739 21.6078 9.89443
62 4 1 8.65315 19.4582 10.8483
67 4 2 4.48141 17.6817 12.1953
63 4 1 9.24301 18.1242 11.2732
61 4 1 9.45738 20.2837 10.0092
64 4 3 9.51297 17.2275 10.45
65 4 3 10.0832 18.0443 12.3883
73 4 2 9.86932 18.5387 13.1914
8 1 2 19.3846 7.92751 16.4115
ITEM: TIMESTEP
4940
ITEM: NUMBER OF ATOMS
115
ITEM: BOX BOUNDS pp pp pp
-2.8628399999999999e+01 2.8628399999999999e+01
-2.8628399999999999e+01 2.8628399999999999e+01
-2.8628399999999999e+01 2.8628399999999999e+01
ITEM: ATOMS id mol type x y z
74 5 1 12.9555 -12.2622 -13.1659
75 5 1 13.8844 -11.0894 -13.0749
76 5 3 14.1783 -10.5909 -14.1864
77 5 3 14.9094 -11.1715 -12.1181
78 5 1 15.5855 -9.95509 -11.8036
87 5 2 12.0828 -11.9931 -13.7799
88 5 2 12.6348 -12.489 -12.1616
89 5 2 13.5361 -13.1361 -13.6123
83 5 1 16.8508 -10.1156 -11.1005
84 5 1 17.6454 -11.3989 -11.1349
85 5 3 18.08 -11.7487 -12.2699
86 5 3 18.4157 -11.7487 -10.0427
94 5 2 17.988 -11.8589 -9.13298
79 5 1 14.8202 -8.87744 -11.3557
80 5 1 15.5007 -7.7366 -10.8559
90 5 2 13.8441 -8.69919 -11.8618
91 5 2 14.8305 -7.00232 -10.3398
81 5 1 16.7713 -7.86962 -10.3702
82 5 1 17.577 -8.88546 -10.9341
92 5 2 17.2744 -7.0361 -10.071
93 5 2 18.1943 -8.61639 -11.7617
97 6 3 17.11 17.4811 -9.86669
95 6 1 15.2365 17.354 -8.42126
108 6 2 14.4964 17.2975 -9.23697
109 6 2 14.7837 18.0927 -7.69931
110 6 2 15.4098 16.3641 -7.92678
96 6 1 16.4487 18.0058 -8.95422
98 6 3 17.2485 18.5034 -7.86788
99 6 1 18.3312 19.3863 -7.87673
100 6 1 18.1316 20.6394 -8.63622
101 6 1 18.8556 21.8526 -8.3632
102 6 1 19.4158 21.9981 -7.06293
103 6 1 19.8623 20.7693 -6.51235
104 6 1 18.8993 19.6922 -6.5885
105 6 1 19.2567 18.4512 -5.83674
106 6 3 18.3936 17.6411 -5.4071
107 6 3 20.4208 17.8341 -6.45889
111 6 2 17.6932 20.6141 -9.61033
114 6 2 20.4789 20.9015 -5.67445
115 6 2 20.7921 16.9848 -6.23243
112 6 2 18.5943 22.7731 -8.8089
113 6 2 20.1777 22.6521 -7.06065
45 3 2 15.1677 -6.19248 6.75683
32 3 1 16.1653 -6.05945 7.07618
46 3 2 16.1666 -5.94877 8.18832
47 3 2 16.6802 -7.01066 6.90631
33 3 1 16.9817 -4.86327 6.42399
34 3 3 16.9701 -4.91295 5.17973
35 3 3 18.1622 -4.60094 7.03982
36 3 1 19 -3.49592 6.84857
41 3 1 20.3298 -3.55892 7.33727
42 3 1 21.0876 -4.87033 7.20349
43 3 3 21.3008 -5.3355 6.01927
44 3 3 22.0823 -5.19248 8.06669
51 3 2 22.1902 -2.34879 7.52242
52 3 2 23.0219 -4.83489 7.90222
40 3 1 21.1649 -2.3441 7.17867
37 3 1 18.3569 -2.22662 7.08472
38 3 1 19.1613 -1.03527 6.8438
39 3 1 20.5208 -1.09464 7.31358
48 3 2 17.3113 -2.07091 6.96941
49 3 2 18.7477 -0.0605186 7.01618
50 3 2 21.0676 -0.217235 7.06735
55 4 3 5.35525 17.5137 9.13562
69 4 2 5.82507 20.8022 9.45963
59 4 1 7.69611 21.7074 9.50551
72 4 2 9.59954 19.7907 8.99615
70 4 2 7.39877 22.6919 9.20198
71 4 2 9.78585 22.1579 9.43066
11 2 1 -12.4247 -22.8974 12.9414
12 2 1 -11.199 -22.862 12.1246
13 2 3 -11.101 -23.4018 11.0225
14 2 3 -10.0263 -22.3193 12.7609
24 2 2 -13.209 -22.8542 12.2528
26 2 2 -12.5547 -23.806 13.5611
21 2 1 -7.38494 -22.4814 14.0494
22 2 3 -7.07214 -23.6555 13.5967
23 2 3 -6.72172 -22.124 15.18
31 2 2 -5.8462 -21.557 15.0605
25 2 2 -12.4558 -22.0241 13.5953
27 2 2 -10.1798 -20.2781 11.0072
20 2 1 -7.86765 -21.3333 13.1617
16 2 1 -9.39351 -20.212 11.7028
28 2 2 -8.85775 -18.4081 10.917
15 2 1 -9.03734 -21.4128 12.3536
17 2 1 -8.41234 -19.348 11.2647
18 2 1 -7.2919 -19.3024 12.037
19 2 1 -6.81661 -20.4721 12.6512
29 2 2 -6.50378 -18.6653 11.6036
30 2 2 -5.85319 -20.4415 13.2249
1 1 1 18.2793 7.63845 14.5982
2 1 1 19.3544 7.99477 15.2249
3 1 1 20.4475 8.7168 14.5504
7 1 2 17.5759 7.1098 15.203
5 1 4 20.3092 10.0723 14.2293
10 1 2 20.9681 10.5307 13.5834
4 1 3 21.6288 8.36668 14.843
6 1 2 18.0279 7.84602 13.5992
9 1 2 19.9757 10.6723 15.0483
66 4 2 3.34462 16.9181 10.8554
68 4 2 5.03352 16.3132 11.5125
54 4 1 5.25184 18.0103 10.3245
53 4 1 4.38115 17.2304 11.304
56 4 3 6.43568 18.5113 10.905
57 4 1 7.28 19.5086 10.446
58 4 1 6.76777 20.7548 9.98418
60 4 1 9.0512 21.5699 9.95258
62 4 1 8.6277 19.4198 10.8757
67 4 2 4.17025 17.8115 12.1903
63 4 1 9.21481 18.0973 11.2812
61 4 1 9.45788 20.202 9.99979
64 4 3 9.50791 17.2177 10.4047
65 4 3 10.0688 18.0476 12.3559
73 4 2 9.85309 18.6891 13.1927
8 1 2 19.4462 7.814 16.1764
ITEM: TIMESTEP
4960
ITEM: NUMBER OF ATOMS
115
ITEM: BOX BOUNDS pp pp pp
-2.8628399999999999e+01 2.8628399999999999e+01
-2.8628399999999999e+01 2.8628399999999999e+01
-2.8628399999999999e+01 2.8628399999999999e+01
ITEM: ATOMS id mol type x y z
74 5 1 12.9714 -12.324 -13.0822
75 5 1 13.9164 -11.1285 -13.0383
76 5 3 14.1115 -10.6784 -14.1918
77 5 3 14.9679 -11.1563 -12.1654
78 5 1 15.6462 -10.0227 -11.8156
87 5 2 12.0306 -12.0417 -13.6639
88 5 2 12.684 -12.6085 -12.0353
89 5 2 13.5881 -13.1275 -13.4806
83 5 1 16.9559 -10.1228 -11.2472
84 5 1 17.5877 -11.4573 -11.198
85 5 3 18.1385 -11.7602 -12.2782
86 5 3 18.3591 -11.7922 -10.1032
94 5 2 17.9765 -11.8674 -9.14759
79 5 1 14.8406 -8.95343 -11.2543
80 5 1 15.4899 -7.77818 -10.8176
90 5 2 13.9203 -8.80774 -11.5921
91 5 2 14.8919 -7.07756 -10.2717
81 5 1 16.8016 -7.9633 -10.3249
82 5 1 17.5619 -8.8759 -11.0171
92 5 2 17.3348 -7.13547 -9.94312
93 5 2 18.3951 -8.60705 -11.6923
97 6 3 17.0258 17.4791 -9.97463
95 6 1 15.2205 17.2827 -8.47971
108 6 2 14.6485 17.1801 -9.34198
109 6 2 14.5693 17.8072 -7.77617
110 6 2 15.4562 16.3284 -8.16951
96 6 1 16.4918 18.023 -8.95184
98 6 3 17.2858 18.5581 -7.95009
99 6 1 18.2998 19.5011 -7.91299
100 6 1 18.0922 20.6532 -8.69005
101 6 1 18.8448 21.8438 -8.34553
102 6 1 19.4622 21.9343 -7.07437
103 6 1 19.8953 20.7053 -6.5345
104 6 1 18.9299 19.613 -6.64992
105 6 1 19.3372 18.4019 -5.89321
106 6 3 18.457 17.6619 -5.42321
107 6 3 20.3694 17.8734 -6.54001
111 6 2 17.9428 20.4774 -9.74692
114 6 2 20.3598 20.9069 -5.58055
115 6 2 21.0012 17.1622 -6.12456
112 6 2 18.506 22.7095 -8.78936
113 6 2 20.0767 22.8512 -6.85887
45 3 2 15.3185 -6.06871 6.35273
32 3 1 16.1743 -6.01076 6.96798
46 3 2 15.8056 -5.79864 8.01748
47 3 2 16.7147 -6.97195 6.93782
33 3 1 16.9937 -4.90505 6.40128
34 3 3 16.9554 -4.96339 5.13059
35 3 3 18.1689 -4.52457 7.09529
36 3 1 19.059 -3.43124 6.85477
41 3 1 20.36 -3.51618 7.44902
42 3 1 21.1001 -4.81023 7.191
43 3 3 21.1905 -5.34087 5.98779
44 3 3 22.0977 -5.24471 8.08421
51 3 2 22.1383 -2.33436 7.5852
52 3 2 23.0063 -4.81662 8.20683
40 3 1 21.119 -2.36861 7.24559
37 3 1 18.4294 -2.21528 7.10095
38 3 1 19.2145 -1.05721 6.83994
39 3 1 20.4869 -1.06703 7.34725
48 3 2 17.4346 -2.08568 6.81324
49 3 2 18.6802 -0.0725988 6.88537
50 3 2 21.1165 -0.201761 7.24418
55 4 3 5.25489 17.5021 9.08884
69 4 2 5.81666 20.9466 9.42044
59 4 1 7.75503 21.7626 9.49952
72 4 2 9.89456 19.6312 9.19331
70 4 2 7.43003 22.7883 9.53697
71 4 2 9.81478 22.1448 9.42138
11 2 1 -12.4183 -23.0575 12.9049
12 2 1 -11.1923 -22.8183 12.0898
13 2 3 -11.1107 -23.428 10.9912
14 2 3 -10.0721 -22.3051 12.8185
24 2 2 -13.2779 -22.9146 12.3397
26 2 2 -12.4235 -24.0709 13.348
21 2 1 -7.41657 -22.4576 13.9668
22 2 3 -7.0746 -23.5628 13.5222
23 2 3 -6.68532 -22.0541 15.1062
31 2 2 -5.70053 -21.8762 14.914
25 2 2 -12.4522 -22.3819 13.7741
27 2 2 -10.3507 -20.3381 10.9778
20 2 1 -7.91817 -21.3163 13.1844
16 2 1 -9.47064 -20.2505 11.6381
28 2 2 -8.77867 -18.5171 10.6858
15 2 1 -9.03078 -21.4772 12.3138
17 2 1 -8.40273 -19.3571 11.2843
18 2 1 -7.21849 -19.2593 12.0965
19 2 1 -6.91325 -20.4969 12.7239
29 2 2 -6.44821 -18.5289 11.8593
30 2 2 -6.01323 -20.5592 13.2359
1 1 1 18.2177 7.70454 14.6107
2 1 1 19.4458 7.94912 15.154
3 1 1 20.4809 8.67582 14.4608
7 1 2 17.5682 7.08413 15.1948
5 1 4 20.3913 10.1171 14.1896
10 1 2 21.0943 10.4932 13.5293
4 1 3 21.6011 8.25061 14.8372
6 1 2 17.92 8.02519 13.6026
9 1 2 20.0243 10.7019 14.9602
66 4 2 3.46382 16.9939 10.7019
68 4 2 4.82333 16.3747 11.7814
54 4 1 5.3024 17.9003 10.279
53 4 1 4.36121 17.2588 11.1934
56 4 3 6.37916 18.5168 10.9385
57 4 1 7.26192 19.4636 10.3417
58 4 1 6.79484 20.7929 9.96865
60 4 1 9.08873 21.5176 9.79368
62 4 1 8.59916 19.4427 10.8724
67 4 2 4.08397 18.0538 11.901
63 4 1 9.22646 18.0874 11.2432
61 4 1 9.44763 20.1684 10.0066
64 4 3 9.4245 17.1707 10.3893
65 4 3 10.0096 17.981 12.3496
73 4 2 9.69055 18.43 13.179
8 1 2 19.6936 7.53108 16.1835
ITEM: TIMESTEP
4980
ITEM: NUMBER OF ATOMS
115
ITEM: BOX BOUNDS pp pp pp
-2.8628399999999999e+01 2.8628399999999999e+01
-2.8628399999999999e+01 2.8628399999999999e+01
-2.8628399999999999e+01 2.8628399999999999e+01
ITEM: ATOMS id mol type x y z
74 5 1 12.9866 -12.3673 -13.0195
75 5 1 13.8544 -11.1594 -13.0098
76 5 3 14.0852 -10.7461 -14.1669
77 5 3 15.0052 -11.1891 -12.2142
78 5 1 15.6667 -9.99767 -11.9186
87 5 2 12.0242 -12.1367 -13.5318
88 5 2 12.8694 -12.5843 -11.9495
89 5 2 13.5444 -13.2281 -13.4476
83 5 1 16.8595 -10.1156 -11.2119
84 5 1 17.6861 -11.3765 -11.2626
85 5 3 18.1742 -11.833 -12.3175
86 5 3 18.3725 -11.8265 -10.0986
94 5 2 18.137 -11.4781 -9.1674
79 5 1 14.8848 -9.00681 -11.1798
80 5 1 15.5571 -7.84065 -10.7603
90 5 2 13.9028 -8.84665 -11.5254
91 5 2 14.9431 -7.07388 -10.2612
81 5 1 16.8545 -7.97368 -10.2971
82 5 1 17.6078 -8.90064 -10.9752
92 5 2 17.3128 -7.05626 -9.91858
93 5 2 18.1204 -8.58739 -11.8591
97 6 3 16.998 17.6734 -10.0445
95 6 1 15.2833 17.273 -8.50202
108 6 2 14.4706 17.1391 -9.30884
109 6 2 14.8844 17.9293 -7.69006
110 6 2 15.5971 16.2058 -8.01685
96 6 1 16.4758 18.0252 -8.96673
98 6 3 17.2524 18.5355 -7.93618
99 6 1 18.2584 19.5596 -7.93582
100 6 1 18.0476 20.7525 -8.65637
101 6 1 18.8342 21.8157 -8.44648
102 6 1 19.4002 21.8641 -7.17685
103 6 1 19.7798 20.6555 -6.57003
104 6 1 18.8427 19.6641 -6.65516
105 6 1 19.4404 18.4045 -5.99504
106 6 3 18.6204 17.58 -5.42011
107 6 3 20.5988 17.8634 -6.56362
111 6 2 17.5957 20.7205 -9.65062
114 6 2 20.4253 20.68 -5.70379
115 6 2 21.0585 17.0246 -6.209
112 6 2 18.5374 22.8031 -8.86973
113 6 2 20.0211 22.7335 -7.0073
45 3 2 15.1655 -6.03824 6.43324
32 3 1 16.1458 -5.9758 6.945
46 3 2 15.9912 -5.84968 8.0489
47 3 2 16.6572 -6.94504 6.73223
33 3 1 16.9967 -4.96341 6.35979
34 3 3 17.108 -4.93448 5.12117
35 3 3 18.1872 -4.55877 7.06821
36 3 1 19.0457 -3.40613 6.92068
41 3 1 20.4111 -3.52171 7.34994
42 3 1 21.0932 -4.84929 7.1136
43 3 3 21.0592 -5.36608 5.98717
44 3 3 22.1326 -5.20281 7.95328
51 3 2 22.227 -2.33238 7.62157
52 3 2 23.041 -4.74124 8.04607
40 3 1 21.1834 -2.31888 7.20981
37 3 1 18.4428 -2.17143 7.06926
38 3 1 19.2276 -0.99395 6.87576
39 3 1 20.5483 -1.04041 7.38002
48 3 2 17.3733 -2.07015 6.73286
49 3 2 18.7413 -0.0860905 6.94661
50 3 2 21.2699 -0.187547 7.14312
55 4 3 5.28864 17.5067 9.08479
69 4 2 5.78064 21.0099 9.72431
59 4 1 7.73888 21.6999 9.56374
72 4 2 9.97414 19.8206 9.1421
70 4 2 7.3634 22.6631 9.27362
71 4 2 9.86944 22.2721 9.27427
11 2 1 -12.4635 -23.1759 12.8384
12 2 1 -11.2465 -22.7986 12.0723
13 2 3 -11.0682 -23.4742 11.0176
14 2 3 -10.0922 -22.3327 12.7243
24 2 2 -13.3608 -22.9813 12.2061
26 2 2 -12.334 -24.3131 13.1574
21 2 1 -7.45116 -22.4736 14.0092
22 2 3 -7.16162 -23.5399 13.4624
23 2 3 -6.70749 -22.1356 15.1647
31 2 2 -5.82272 -21.7155 15.0762
25 2 2 -12.6019 -22.5988 13.7877
27 2 2 -10.2582 -20.3171 10.9124
20 2 1 -7.94425 -21.3528 13.2216
16 2 1 -9.43143 -20.2386 11.6313
28 2 2 -8.75217 -18.5531 10.7227
15 2 1 -9.08286 -21.4675 12.2643
17 2 1 -8.37068 -19.4262 11.2272
18 2 1 -7.36067 -19.2797 12.0972
19 2 1 -6.88903 -20.4883 12.6714
29 2 2 -6.63976 -18.6946 11.7409
30 2 2 -5.90837 -20.3398 13.1652
1 1 1 18.1806 7.67272 14.6028
2 1 1 19.405 7.88305 15.178
3 1 1 20.5017 8.61335 14.5263
7 1 2 17.3459 7.27729 15.133
5 1 4 20.3447 10.0023 14.2754
10 1 2 21.0744 10.4695 13.6254
4 1 3 21.6783 8.19504 14.7933
6 1 2 18.0503 7.92487 13.5142
9 1 2 20.0159 10.6114 15.0185
66 4 2 3.21168 17.0624 10.7409
68 4 2 4.6569 16.1803 11.4886
54 4 1 5.20931 17.9032 10.2913
53 4 1 4.22029 17.1769 11.1955
56 4 3 6.34075 18.5519 10.8291
57 4 1 7.23457 19.4641 10.2725
58 4 1 6.77937 20.7734 10.0403
60 4 1 9.18081 21.5838 9.81186
62 4 1 8.64064 19.3795 10.7792
67 4 2 4.05796 17.8021 12.1524
63 4 1 9.13439 18.0489 11.2769
61 4 1 9.53681 20.2443 10.063
64 4 3 9.42384 17.2012 10.3705
65 4 3 9.91344 17.8676 12.3614
73 4 2 9.67074 18.1859 13.2504
8 1 2 19.424 7.68864 16.2819
ITEM: TIMESTEP
5000
ITEM: NUMBER OF ATOMS
115
ITEM: BOX BOUNDS pp pp pp
-2.8628399999999999e+01 2.8628399999999999e+01
-2.8628399999999999e+01 2.8628399999999999e+01
-2.8628399999999999e+01 2.8628399999999999e+01
ITEM: ATOMS id mol type x y z
74 5 1 13.0365 -12.483 -12.9743
75 5 1 13.8594 -11.2325 -13.0828
76 5 3 14.0509 -10.7382 -14.2185
77 5 3 14.9887 -11.1324 -12.2035
78 5 1 15.6782 -10.0169 -11.8291
87 5 2 12.0271 -12.2094 -13.3098
88 5 2 13.0479 -12.8063 -11.9579
89 5 2 13.5327 -13.2579 -13.6266
83 5 1 16.9717 -10.1741 -11.2402
84 5 1 17.8241 -11.3709 -11.3725
85 5 3 18.2796 -11.8379 -12.433
86 5 3 18.2943 -11.8444 -10.1603
94 5 2 17.871 -11.5296 -9.29797
79 5 1 14.9134 -8.95598 -11.2679
80 5 1 15.5212 -7.85656 -10.6879
90 5 2 13.9152 -8.88696 -11.6762
91 5 2 14.8659 -7.16542 -10.1689
81 5 1 16.923 -7.96827 -10.281
82 5 1 17.6026 -8.97206 -10.9729
92 5 2 17.449 -7.08539 -9.97154
93 5 2 18.2845 -8.64273 -11.7586
97 6 3 16.9944 17.7235 -10.0682
95 6 1 15.2735 17.3236 -8.5137
108 6 2 14.5779 17.1681 -9.36805
109 6 2 14.8863 17.8916 -7.66247
110 6 2 15.7028 16.3186 -8.14945
96 6 1 16.481 18.0493 -8.94357
98 6 3 17.2315 18.5846 -7.8744
99 6 1 18.2723 19.4721 -7.89546
100 6 1 17.9043 20.7032 -8.55376
101 6 1 18.757 21.8232 -8.44704
102 6 1 19.4332 22.0573 -7.18834
103 6 1 19.7812 20.8163 -6.61448
104 6 1 18.9565 19.6332 -6.64525
105 6 1 19.4823 18.37 -5.99473
106 6 3 18.6775 17.5627 -5.37965
107 6 3 20.6556 17.8486 -6.58624
111 6 2 17.4864 20.6894 -9.60106
114 6 2 20.4192 20.876 -5.75007
115 6 2 21.1747 17.2367 -6.03446
112 6 2 18.4875 22.6798 -9.02834
113 6 2 20.1621 22.8666 -7.01769
45 3 2 15.2897 -6.13777 6.33117
32 3 1 16.2668 -6.04017 6.93548
46 3 2 15.887 -5.92605 7.97402
47 3 2 16.8981 -6.9676 6.82368
33 3 1 17.0283 -4.86288 6.32671
34 3 3 17.17 -4.91025 5.10065
35 3 3 18.253 -4.58059 7.06073
36 3 1 19.0093 -3.39052 6.86133
41 3 1 20.3374 -3.52402 7.28177
42 3 1 21.0402 -4.87588 7.02588
43 3 3 20.9003 -5.46376 5.93957
44 3 3 22.0923 -5.24391 7.85215
51 3 2 22.1591 -2.40002 7.75557
52 3 2 22.9049 -4.65688 7.88172
40 3 1 21.2151 -2.39649 7.21272
37 3 1 18.4099 -2.11624 7.05971
38 3 1 19.2597 -0.998766 6.83275
39 3 1 20.5678 -1.11221 7.24644
48 3 2 17.4102 -1.98637 6.67263
49 3 2 18.8481 -0.013432 6.91182
50 3 2 21.2547 -0.225903 7.18468
55 4 3 5.24426 17.4305 9.14353
69 4 2 5.85067 21.0971 9.68575
59 4 1 7.73627 21.6538 9.47238
72 4 2 10.0999 19.8756 9.16018
70 4 2 7.39055 22.6491 9.26273
71 4 2 9.64392 22.3189 9.6825
11 2 1 -12.4829 -23.2221 12.8462
12 2 1 -11.2272 -22.8359 12.0341
13 2 3 -10.9377 -23.4718 10.9614
14 2 3 -10.1509 -22.2393 12.8093
24 2 2 -13.4369 -23.0726 12.2657
26 2 2 -12.3783 -24.2367 13.269
21 2 1 -7.43178 -22.4772 14.0505
22 2 3 -7.13788 -23.5469 13.4753
23 2 3 -6.6925 -22.0858 15.2475
31 2 2 -5.68122 -21.7464 15.1706
25 2 2 -12.7052 -22.4978 13.656
27 2 2 -10.3185 -20.5054 10.9865
20 2 1 -7.95528 -21.3516 13.1905
16 2 1 -9.40595 -20.3184 11.5546
28 2 2 -8.93375 -18.5014 10.6016
15 2 1 -9.05516 -21.4681 12.2736
17 2 1 -8.48737 -19.3759 11.0955
18 2 1 -7.38218 -19.2899 11.9837
19 2 1 -7.00698 -20.4829 12.6802
29 2 2 -6.5579 -18.5984 11.7207
30 2 2 -6.06619 -20.3477 13.2402
1 1 1 18.1891 7.54574 14.5981
2 1 1 19.3182 7.97076 15.1851
3 1 1 20.47 8.58292 14.506
7 1 2 17.4488 7.00314 15.1356
5 1 4 20.3541 9.93961 14.3164
10 1 2 20.7995 10.4362 13.4873
4 1 3 21.6593 8.28305 14.7212
6 1 2 17.9996 7.62214 13.5329
9 1 2 19.8991 10.585 15.0651
66 4 2 3.30885 16.9078 10.6984
68 4 2 4.82167 16.2488 11.3736
54 4 1 5.07513 17.9626 10.2778
53 4 1 4.25113 17.1386 11.1839
56 4 3 6.28187 18.509 10.8366
57 4 1 7.24691 19.4744 10.3199
58 4 1 6.84364 20.8385 10.09
60 4 1 9.0345 21.5121 9.99522
62 4 1 8.62347 19.3667 10.7888
67 4 2 4.06292 17.5556 12.1879
63 4 1 9.13859 18.0624 11.2562
61 4 1 9.53834 20.2216 10.0617
64 4 3 9.38263 17.2113 10.3433
65 4 3 9.96093 17.8774 12.4665
73 4 2 9.5689 18.259 13.3919
8 1 2 19.4031 7.69691 16.2489
