LAMMPS (10 Dec 2025)
OMP_NUM_THREADS environment is not set. Defaulting to 1 thread.
  using 1 OpenMP thread(s) per MPI task
# LAMMPS Input file generated by Proteus (CHONS Forcefield)

units real
atom_style full
boundary p p p

read_data /home/hy/code/projects/heroine/output/gradio_run_3c5bdb50/system.data
Reading data file ...
  orthogonal box = (-29.347 -29.347 -29.347) to (29.347 29.347 29.347)
  1 by 1 by 1 MPI processor grid
  reading atoms ...
  171 atoms
  scanning bonds ...
  4 = max bonds/atom
  scanning angles ...
  6 = max angles/atom
  scanning dihedrals ...
  18 = max dihedrals/atom
  orthogonal box = (-29.347 -29.347 -29.347) to (29.347 29.347 29.347)
  1 by 1 by 1 MPI processor grid
  reading bonds ...
  171 bonds
  reading angles ...
  276 angles
  reading dihedrals ...
  360 dihedrals
Finding 1-2 1-3 1-4 neighbors ...
  special bond factors lj:    0        0        0       
  special bond factors coul:  0        0        0       
     4 = max # of 1-2 neighbors
     9 = max # of 1-3 neighbors
    16 = max # of 1-4 neighbors
    19 = max # of special neighbors
  special bonds CPU = 0.000 seconds
  read_data CPU = 0.009 seconds

# Force Field
pair_style lj/cut 10.65
pair_modify mix arithmetic
pair_coeff 1 1 0.066 3.5
pair_coeff 2 2 0.03 2.5
pair_coeff 3 3 0.17 3.12
pair_coeff 4 4 0.17 3.25
pair_coeff 5 5 0.25 3.55

bond_style harmonic
bond_coeff 1 300.0 1.49
bond_coeff 2 600.0 1.26
bond_coeff 3 300.0 1.4
bond_coeff 4 300.0 1.41
bond_coeff 5 300.0 1.39
bond_coeff 6 300.0 1.42
bond_coeff 7 300.0 1.11
bond_coeff 8 300.0 1.08
bond_coeff 9 300.0 1.01
bond_coeff 10 300.0 1.53
bond_coeff 11 300.0 1.54
bond_coeff 12 300.0 1.51
bond_coeff 13 300.0 1.52

angle_style harmonic
angle_coeff 1 60.0 110.1
angle_coeff 2 60.0 109.9
angle_coeff 3 60.0 109.5
angle_coeff 4 60.0 108.9
angle_coeff 5 60.0 109.3
angle_coeff 6 60.0 109.1
angle_coeff 7 60.0 119.5
angle_coeff 8 60.0 119.3
angle_coeff 9 60.0 121.1
angle_coeff 10 60.0 125.4
angle_coeff 11 60.0 120.8
angle_coeff 12 60.0 119.8
angle_coeff 13 60.0 119.4
angle_coeff 14 60.0 120.6
angle_coeff 15 60.0 118.5
angle_coeff 16 60.0 120.1
angle_coeff 17 60.0 120.0
angle_coeff 18 60.0 119.9
angle_coeff 19 60.0 118.4
angle_coeff 20 60.0 119.0
angle_coeff 21 60.0 122.0
angle_coeff 22 60.0 121.0
angle_coeff 23 60.0 118.9
angle_coeff 24 60.0 120.9
angle_coeff 25 60.0 110.6
angle_coeff 26 60.0 110.3
angle_coeff 27 60.0 108.8
angle_coeff 28 60.0 107.8
angle_coeff 29 60.0 110.0
angle_coeff 30 60.0 107.5
angle_coeff 31 60.0 111.6
angle_coeff 32 60.0 108.3
angle_coeff 33 60.0 109.2
angle_coeff 34 60.0 110.5
angle_coeff 35 60.0 110.8
angle_coeff 36 60.0 110.4
angle_coeff 37 60.0 108.7
angle_coeff 38 60.0 112.1
angle_coeff 39 60.0 109.6
angle_coeff 40 60.0 106.5
angle_coeff 41 60.0 120.4
angle_coeff 42 60.0 119.2
angle_coeff 43 60.0 120.5
angle_coeff 44 60.0 119.1
angle_coeff 45 60.0 120.3
angle_coeff 46 60.0 111.2
angle_coeff 47 60.0 107.1
angle_coeff 48 60.0 106.6
angle_coeff 49 60.0 111.0
angle_coeff 50 60.0 107.9
angle_coeff 51 60.0 119.7
angle_coeff 52 60.0 120.7

dihedral_style harmonic
dihedral_coeff 1 1.0 1 3

neighbor 2.0 bin
neigh_modify delay 0 every 10 check yes

# 1-4 interactions are typically scaled in molecular force fields
special_bonds lj 0.0 0.0 0.5
Finding 1-2 1-3 1-4 neighbors ...
  special bond factors lj:    0        0        0.5     
  special bond factors coul:  0        0        0       
     4 = max # of 1-2 neighbors
     9 = max # of 1-3 neighbors
    16 = max # of 1-4 neighbors
    19 = max # of special neighbors
  special bonds CPU = 0.000 seconds

# Group definitions
group all_atoms type 1 2 3 4 5
171 atoms in group all_atoms

# Simulation Protocol
minimize 1.0e-4 1.0e-6 1000 10000
Switching to 'neigh_modify every 1 delay 0 check yes' setting during minimization
Generated 10 of 10 mixed pair_coeff terms from arithmetic mixing rule
Neighbor list info ...
  update: every = 1 steps, delay = 0 steps, check = yes
  max neighbors/atom: 2000, page size: 100000
  master list distance cutoff = 12.65
  ghost atom cutoff = 12.65
  binsize = 6.325, bins = 10 10 10
  1 neighbor lists, perpetual/occasional/extra = 1 0 0
  (1) pair lj/cut, perpetual
      attributes: half, newton on
      pair build: half/bin/newton
      stencil: half/bin/3d
      bin: standard
Per MPI rank memory allocation (min/avg/max) = 15.91 | 15.91 | 15.91 Mbytes
   Step          Temp          E_pair         E_mol          TotEng         Press     
         0   0              67.885647      283.78981      351.67545      148.48684    
       101   0              42.342179      130.74017      173.08235      1.4786694    
Loop time of 0.0113239 on 1 procs for 101 steps with 171 atoms

100.0% CPU use with 1 MPI tasks x 1 OpenMP threads

Minimization stats:
  Stopping criterion = energy tolerance
  Energy initial, next-to-last, final = 
      351.675452956028   173.096951921522   173.082346325262
  Force two-norm initial, final = 128.96844 4.6841304
  Force max component initial, final = 19.234199 0.85915231
  Final line search alpha, max atom move = 0.03325033 0.028567097
  Iterations, force evaluations = 101 202

MPI task timing breakdown:
Section |  min time  |  avg time  |  max time  |%varavg| %total
---------------------------------------------------------------
Pair    | 0.0044139  | 0.0044139  | 0.0044139  |   0.0 | 38.98
Bond    | 0.0060176  | 0.0060176  | 0.0060176  |   0.0 | 53.14
Neigh   | 0.00011779 | 0.00011779 | 0.00011779 |   0.0 |  1.04
Comm    | 0.00020963 | 0.00020963 | 0.00020963 |   0.0 |  1.85
Output  | 0          | 0          | 0          |   0.0 |  0.00
Modify  | 0          | 0          | 0          |   0.0 |  0.00
Other   |            | 0.000565   |            |       |  4.99

Nlocal:            171 ave         171 max         171 min
Histogram: 1 0 0 0 0 0 0 0 0 0
Nghost:            289 ave         289 max         289 min
Histogram: 1 0 0 0 0 0 0 0 0 0
Neighs:           1722 ave        1722 max        1722 min
Histogram: 1 0 0 0 0 0 0 0 0 0

Total # of neighbors = 1722
Ave neighs/atom = 10.070175
Ave special neighs/atom = 9.1929825
Neighbor list builds = 1
Dangerous builds = 0
reset_timestep 0

timestep 1.0

# 2. Equilibration / Dynamics
fix 1 all langevin 300.0 300.0 20.0 10818
fix 2 all nve

# Output
dump 1 all custom 200 /home/hy/code/projects/heroine/output/gradio_run_3c5bdb50/trajectory.dump id mol type x y z
compute rg all gyration
thermo_style custom step c_rg temp epair
thermo 200

# Run
run 50000
Generated 10 of 10 mixed pair_coeff terms from arithmetic mixing rule
Per MPI rank memory allocation (min/avg/max) = 14.79 | 14.79 | 14.79 Mbytes
   Step          c_rg           Temp          E_pair    
         0   22.778812      0              42.342179    
       200   22.798523      309.5147       49.512471    
       400   22.870933      304.80287      38.593407    
       600   22.857266      310.19145      42.522643    
       800   22.848196      334.60696      48.11012     
      1000   22.885063      319.06048      40.677288    
      1200   22.948628      295.83819      44.756155    
      1400   22.98834       302.20079      45.846107    
      1600   22.96479       268.93245      42.202549    
      1800   23.002012      292.69337      40.317108    
      2000   22.921355      274.37568      39.468151    
      2200   22.984498      311.54275      43.455373    
      2400   22.952539      300.36571      39.853403    
      2600   22.950536      290.20576      39.629765    
      2800   22.920761      274.59858      33.260872    
      3000   22.918939      326.3647       38.437461    
      3200   22.979538      310.45076      38.701173    
      3400   23.068579      316.04863      32.051348    
      3600   23.099816      328.63803      39.301158    
      3800   23.124209      306.81177      36.737868    
      4000   23.023466      317.25175      39.315035    
      4200   23.098776      288.18914      39.884003    
      4400   23.068635      288.29668      39.083519    
      4600   23.066772      270.68903      35.048642    
      4800   23.073054      318.15587      41.011741    
      5000   23.029091      281.72971      37.138366    
      5200   23.076587      300.54709      40.04775     
      5400   23.129184      311.43989      41.121937    
      5600   23.115747      341.75581      34.190835    
      5800   23.074951      301.11328      39.139508    
      6000   22.998287      305.03206      40.695934    
      6200   23.01785       265.82999      36.804115    
      6400   22.964637      346.54085      39.072502    
      6600   22.937697      283.14136      37.797241    
      6800   22.905098      318.3132       37.476334    
      7000   22.893027      326.21467      37.062911    
      7200   22.906922      286.79826      36.220364    
      7400   22.913613      306.12641      37.666507    
      7600   22.937324      299.94261      31.465465    
      7800   22.950219      302.07377      41.841972    
      8000   22.914124      268.52892      38.70332     
      8200   22.926928      295.91354      35.302163    
      8400   22.958612      292.85389      36.663738    
      8600   22.981863      286.62287      32.742729    
      8800   23.007197      273.45252      40.056288    
      9000   22.953864      268.58479      38.015739    
      9200   22.955548      274.08993      41.59279     
      9400   22.898232      289.52406      40.868884    
      9600   22.958288      311.93288      40.672427    
      9800   22.947467      313.97303      39.410258    
     10000   22.971602      272.97459      37.79433     
     10200   22.950969      293.77091      34.129547    
     10400   22.900517      323.03153      34.511026    
     10600   22.919904      309.25022      39.167358    
     10800   22.893129      323.66518      40.995051    
     11000   22.859552      293.54736      36.369301    
     11200   22.854239      304.57536      35.847114    
     11400   22.918641      305.28254      41.884542    
     11600   22.939962      306.1452       31.729842    
     11800   22.974095      271.88565      36.395233    
     12000   22.941759      306.4424       30.592476    
     12200   22.946913      288.60229      37.007868    
     12400   22.967577      325.4939       35.249282    
     12600   22.97384       312.35502      37.254587    
     12800   22.997457      331.6181       32.696362    
     13000   23.010178      290.73618      33.093174    
     13200   23.008421      298.47204      38.734225    
     13400   22.982964      302.92588      40.693436    
     13600   23.002576      324.36833      37.324672    
     13800   22.97846       309.87718      34.863507    
     14000   22.923643      298.08816      41.495541    
     14200   22.89771       290.35345      37.444508    
     14400   22.948265      301.81086      33.849616    
     14600   22.917933      277.17577      38.612688    
     14800   22.898655      285.52478      47.496074    
     15000   22.792981      332.11459      40.997765    
     15200   22.757295      293.8808       34.219504    
     15400   22.734276      267.40996      37.880864    
     15600   22.652056      310.34401      37.116223    
     15800   22.668146      299.881        34.604957    
     16000   22.656714      323.14661      32.166459    
     16200   22.619598      297.93228      38.037324    
     16400   22.604329      302.08358      32.456324    
     16600   22.640473      300.19822      32.914316    
     16800   22.665193      299.88676      41.141554    
     17000   22.661946      290.84486      38.012281    
     17200   22.618697      333.72873      38.919912    
     17400   22.615844      299.24764      39.946743    
     17600   22.569702      300.89289      40.276662    
     17800   22.585276      304.53799      37.927788    
     18000   22.698558      282.16414      32.555729    
     18200   22.674542      271.05412      37.504611    
     18400   22.663073      285.47563      36.844339    
     18600   22.690403      331.64273      44.712901    
     18800   22.726965      310.13152      36.984877    
     19000   22.781561      281.03488      36.418094    
     19200   22.812434      280.60687      39.950951    
     19400   22.848465      307.93944      41.658936    
     19600   22.800002      320.36585      35.729729    
     19800   22.827839      290.73167      32.18137     
     20000   22.856915      307.02079      39.337351    
     20200   22.784616      314.55159      37.002672    
     20400   22.774044      308.47655      38.925729    
     20600   22.758806      289.3039       39.386254    
     20800   22.782212      293.20246      40.064413    
     21000   22.787556      318.01369      34.049275    
     21200   22.765966      278.38648      38.384487    
     21400   22.755084      291.10409      34.602519    
     21600   22.696394      328.82104      34.497739    
     21800   22.717276      282.4757       35.447618    
     22000   22.716995      306.24143      41.374164    
     22200   22.729508      322.88807      40.382578    
     22400   22.717916      278.83883      38.033236    
     22600   22.736218      294.96782      40.637338    
     22800   22.688269      308.95919      40.475086    
     23000   22.659764      330.16458      35.976365    
     23200   22.684964      317.86495      41.203845    
     23400   22.694718      280.37217      31.193296    
     23600   22.655267      260.40268      31.513854    
     23800   22.605571      296.01279      40.580255    
     24000   22.6202        280.29994      32.900343    
     24200   22.583818      300.4661       31.300431    
     24400   22.542032      315.85552      31.068007    
     24600   22.546487      277.91866      32.862486    
     24800   22.540474      289.52722      34.593851    
     25000   22.501164      301.16506      38.378033    
     25200   22.534147      298.32307      36.335272    
     25400   22.525658      315.84561      36.017894    
     25600   22.584263      303.09449      35.250323    
     25800   22.615101      302.77311      34.25965     
     26000   22.575832      292.64362      36.37476     
     26200   22.588984      270.02629      33.18673     
     26400   22.534399      332.98567      35.800471    
     26600   22.596141      289.98233      37.87155     
     26800   22.603439      288.58924      33.762086    
     27000   22.585804      290.48141      35.728452    
     27200   22.565301      311.27968      34.032043    
     27400   22.641406      287.17379      35.560118    
     27600   22.599481      271.66653      29.011975    
     27800   22.592778      320.95251      31.190297    
     28000   22.645414      300.99983      28.485174    
     28200   22.591449      298.14125      35.588462    
     28400   22.626461      313.0414       37.490477    
     28600   22.665314      257.83258      35.421993    
     28800   22.675074      318.92749      39.806271    
     29000   22.643211      303.81835      36.093473    
     29200   22.715537      322.41097      33.593003    
     29400   22.788538      305.3267       34.052312    
     29600   22.778805      337.69552      34.270497    
     29800   22.837224      307.34991      37.951541    
     30000   22.797971      278.15124      40.003313    
     30200   22.807308      264.49307      34.424195    
     30400   22.768816      290.07853      35.66178     
     30600   22.828266      295.32866      36.245101    
     30800   22.791332      312.0155       38.03694     
     31000   22.842584      295.21195      41.000587    
     31200   22.883531      285.07031      35.86842     
     31400   22.867428      295.86086      38.256031    
     31600   22.897791      316.23839      33.755918    
     31800   22.973813      294.40194      39.034582    
     32000   23.0015        295.50943      32.90978     
     32200   23.034644      309.17137      42.439323    
     32400   23.033697      312.89645      40.054834    
     32600   23.035578      306.07285      41.570411    
     32800   23.042084      285.90333      34.52629     
     33000   23.032896      305.75479      39.708013    
     33200   23.034848      286.54538      38.006546    
     33400   23.070728      329.63177      32.821717    
     33600   23.105744      296.32855      32.416786    
     33800   23.07732       291.83911      32.629304    
     34000   23.102814      282.19571      34.685463    
     34200   23.120379      337.63049      31.427392    
     34400   23.102633      327.92074      36.207455    
     34600   23.116533      290.12265      42.012609    
     34800   23.087694      293.9072       35.336141    
     35000   23.083536      334.91611      38.599547    
     35200   23.075792      268.34647      40.715223    
     35400   23.097423      292.87485      35.321259    
     35600   23.098273      308.01973      39.065357    
     35800   23.071806      310.11057      34.271384    
     36000   23.05919       264.38777      34.355284    
     36200   23.078097      297.89445      35.239449    
     36400   23.075618      321.22996      28.742616    
     36600   23.047966      290.93937      34.47426     
     36800   23.062016      320.78805      36.681156    
     37000   23.082985      321.05619      31.8726      
     37200   23.056233      314.22041      32.308053    
     37400   22.997524      288.14093      28.623187    
     37600   22.993384      305.06845      38.016793    
     37800   22.978848      296.64392      39.151913    
     38000   22.977964      286.37139      37.595354    
     38200   22.930069      334.34129      30.788284    
     38400   22.845675      290.09192      31.409485    
     38600   22.80229       297.12128      36.566909    
     38800   22.840821      305.4938       38.287724    
     39000   22.89579       325.25318      35.664796    
     39200   22.88693       296.57543      37.646516    
     39400   22.913402      276.78891      36.106357    
     39600   22.928212      268.30728      32.906675    
     39800   22.956938      271.20657      35.567511    
     40000   22.864502      335.35345      35.47184     
     40200   22.821541      301.17382      31.872661    
     40400   22.814029      308.58828      33.525331    
     40600   22.771261      286.67393      37.4734      
     40800   22.809119      294.5102       37.085507    
     41000   22.865541      319.9133       34.578335    
     41200   22.877846      291.60207      38.657239    
     41400   22.895799      307.70932      39.390875    
     41600   22.902867      320.71342      32.290276    
     41800   23.007322      310.61301      35.331841    
     42000   22.94198       286.08078      38.004429    
     42200   22.915754      317.61846      30.377041    
     42400   22.941878      312.09016      37.647879    
     42600   22.920656      303.95688      36.943498    
     42800   22.935828      338.10905      40.118778    
     43000   22.921951      338.45582      32.331829    
     43200   22.860565      325.51588      37.223507    
     43400   22.887638      323.5944       35.521994    
     43600   22.823949      298.38268      32.465191    
     43800   22.863721      334.55917      36.727154    
     44000   22.833337      328.70918      36.904318    
     44200   22.821898      274.08173      37.069922    
     44400   22.801713      334.78465      38.206855    
     44600   22.832148      299.0809       35.73133     
     44800   22.845129      306.05842      32.11263     
     45000   22.903974      310.53454      39.318333    
     45200   22.856358      331.40704      40.024643    
     45400   22.845281      340.4808       39.247091    
     45600   22.877794      307.34138      38.230528    
     45800   22.897842      298.89103      37.834503    
     46000   22.864387      317.51084      28.791006    
     46200   22.846405      317.71168      29.788481    
     46400   22.895214      333.03727      32.101023    
     46600   22.866711      279.1701       35.164195    
     46800   22.876533      262.83429      33.956154    
     47000   22.925094      306.59932      35.763068    
     47200   22.954632      308.973        34.999733    
     47400   22.98697       317.35236      38.99204     
     47600   23.006694      311.71497      35.727172    
     47800   22.940061      298.76474      38.245548    
     48000   22.915945      282.94963      39.674451    
     48200   22.903421      301.66693      33.22298     
     48400   22.918578      268.97921      33.774082    
     48600   23.007333      345.79001      32.233056    
     48800   22.997336      287.56313      34.383813    
     49000   22.993091      274.24141      32.063971    
     49200   22.963871      297.88501      35.408094    
     49400   22.958343      308.28464      37.657203    
     49600   22.964158      331.1683       38.808491    
     49800   23.031998      294.54485      34.333004    
     50000   23.016124      279.98616      35.252572    
Loop time of 2.20808 on 1 procs for 50000 steps with 171 atoms

Performance: 1956.448 ns/day, 0.012 hours/ns, 22644.073 timesteps/s, 3.872 Matom-step/s
100.0% CPU use with 1 MPI tasks x 1 OpenMP threads

MPI task timing breakdown:
Section |  min time  |  avg time  |  max time  |%varavg| %total
---------------------------------------------------------------
Pair    | 0.57204    | 0.57204    | 0.57204    |   0.0 | 25.91
Bond    | 1.0944     | 1.0944     | 1.0944     |   0.0 | 49.57
Neigh   | 0.038359   | 0.038359   | 0.038359   |   0.0 |  1.74
Comm    | 0.043856   | 0.043856   | 0.043856   |   0.0 |  1.99
Output  | 0.041636   | 0.041636   | 0.041636   |   0.0 |  1.89
Modify  | 0.40152    | 0.40152    | 0.40152    |   0.0 | 18.18
Other   |            | 0.01624    |            |       |  0.74

Nlocal:            171 ave         171 max         171 min
Histogram: 1 0 0 0 0 0 0 0 0 0
Nghost:            202 ave         202 max         202 min
Histogram: 1 0 0 0 0 0 0 0 0 0
Neighs:           1810 ave        1810 max        1810 min
Histogram: 1 0 0 0 0 0 0 0 0 0

Total # of neighbors = 1810
Ave neighs/atom = 10.584795
Ave special neighs/atom = 9.1929825
Neighbor list builds = 423
Dangerous builds = 0
Total wall time: 0:00:02
