LAMMPS (10 Dec 2025)
OMP_NUM_THREADS environment is not set. Defaulting to 1 thread.
  using 1 OpenMP thread(s) per MPI task
# LAMMPS Input file generated by Proteus (CHONS Forcefield)

units real
atom_style full
boundary p p p

read_data /home/hy/code/projects/heroine/output/gradio_run_8697aa35/system.data
Reading data file ...
  orthogonal box = (-26.9055 -26.9055 -26.9055) to (26.9055 26.9055 26.9055)
  1 by 1 by 1 MPI processor grid
  reading atoms ...
  38 atoms
  scanning bonds ...
  4 = max bonds/atom
  scanning angles ...
  6 = max angles/atom
  scanning dihedrals ...
  12 = max dihedrals/atom
  orthogonal box = (-26.9055 -26.9055 -26.9055) to (26.9055 26.9055 26.9055)
  1 by 1 by 1 MPI processor grid
  reading bonds ...
  34 bonds
  reading angles ...
  54 angles
  reading dihedrals ...
  54 dihedrals
Finding 1-2 1-3 1-4 neighbors ...
  special bond factors lj:    0        0        0       
  special bond factors coul:  0        0        0       
     4 = max # of 1-2 neighbors
     4 = max # of 1-3 neighbors
     7 = max # of 1-4 neighbors
     9 = max # of special neighbors
  special bonds CPU = 0.000 seconds
  read_data CPU = 0.007 seconds

# Force Field
pair_style lj/cut 10.65
pair_modify mix arithmetic
pair_coeff 1 1 0.066 3.5
pair_coeff 2 2 0.03 2.5
pair_coeff 3 3 0.17 3.12
pair_coeff 4 4 0.17 3.25
pair_coeff 5 5 0.25 3.55

bond_style harmonic
bond_coeff 1 300.0 1.52
bond_coeff 2 300.0 1.4
bond_coeff 3 300.0 1.11
bond_coeff 4 300.0 0.99
bond_coeff 5 300.0 1.53

angle_style harmonic
angle_coeff 1 60.0 110.1
angle_coeff 2 60.0 109.7
angle_coeff 3 60.0 110.0
angle_coeff 4 60.0 108.9
angle_coeff 5 60.0 109.2
angle_coeff 6 60.0 110.4
angle_coeff 7 60.0 109.1
angle_coeff 8 60.0 110.6
angle_coeff 9 60.0 108.8
angle_coeff 10 60.0 108.1
angle_coeff 11 60.0 106.6
angle_coeff 12 60.0 109.8
angle_coeff 13 60.0 109.3
angle_coeff 14 60.0 107.8
angle_coeff 15 60.0 109.5
angle_coeff 16 60.0 109.0
angle_coeff 17 60.0 106.1

dihedral_style harmonic
dihedral_coeff 1 1.0 1 3

neighbor 2.0 bin
neigh_modify delay 0 every 10 check yes

# 1-4 interactions are typically scaled in molecular force fields
special_bonds lj 0.0 0.0 0.5
Finding 1-2 1-3 1-4 neighbors ...
  special bond factors lj:    0        0        0.5     
  special bond factors coul:  0        0        0       
     4 = max # of 1-2 neighbors
     4 = max # of 1-3 neighbors
     7 = max # of 1-4 neighbors
     9 = max # of special neighbors
  special bonds CPU = 0.000 seconds

# Group definitions
group all_atoms type 1 2 3 4 5
38 atoms in group all_atoms

# Simulation Protocol
minimize 1.0e-4 1.0e-6 1000 10000
Switching to 'neigh_modify every 1 delay 0 check yes' setting during minimization
Generated 10 of 10 mixed pair_coeff terms from arithmetic mixing rule
Neighbor list info ...
  update: every = 1 steps, delay = 0 steps, check = yes
  max neighbors/atom: 2000, page size: 100000
  master list distance cutoff = 12.65
  ghost atom cutoff = 12.65
  binsize = 6.325, bins = 9 9 9
  1 neighbor lists, perpetual/occasional/extra = 1 0 0
  (1) pair lj/cut, perpetual
      attributes: half, newton on
      pair build: half/bin/newton
      stencil: half/bin/3d
      bin: standard
Per MPI rank memory allocation (min/avg/max) = 13.39 | 13.39 | 13.39 Mbytes
   Step          Temp          E_pair         E_mol          TotEng         Press     
         0   0              2.0843946      4.041915       6.1263096      4.1563352    
        25   0              1.6868078      0.5941233      2.2809311     -0.28624322   
Loop time of 0.000407293 on 1 procs for 25 steps with 38 atoms

32.9% CPU use with 1 MPI tasks x 1 OpenMP threads

Minimization stats:
  Stopping criterion = energy tolerance
  Energy initial, next-to-last, final = 
      6.12630958415317   2.28110488534672   2.28093112789744
  Force two-norm initial, final = 29.48273 0.46285587
  Force max component initial, final = 10.685058 0.16175441
  Final line search alpha, max atom move = 0.43122763 0.06975297
  Iterations, force evaluations = 25 59

MPI task timing breakdown:
Section |  min time  |  avg time  |  max time  |%varavg| %total
---------------------------------------------------------------
Pair    | 0.00010036 | 0.00010036 | 0.00010036 |   0.0 | 24.64
Bond    | 0.00025081 | 0.00025081 | 0.00025081 |   0.0 | 61.58
Neigh   | 0          | 0          | 0          |   0.0 |  0.00
Comm    | 1.4975e-05 | 1.4975e-05 | 1.4975e-05 |   0.0 |  3.68
Output  | 0          | 0          | 0          |   0.0 |  0.00
Modify  | 0          | 0          | 0          |   0.0 |  0.00
Other   |            | 4.115e-05  |            |       | 10.10

Nlocal:             38 ave          38 max          38 min
Histogram: 1 0 0 0 0 0 0 0 0 0
Nghost:             66 ave          66 max          66 min
Histogram: 1 0 0 0 0 0 0 0 0 0
Neighs:            164 ave         164 max         164 min
Histogram: 1 0 0 0 0 0 0 0 0 0

Total # of neighbors = 164
Ave neighs/atom = 4.3157895
Ave special neighs/atom = 7.4736842
Neighbor list builds = 0
Dangerous builds = 0
reset_timestep 0

timestep 1.0

# 2. Equilibration / Dynamics
fix 1 all langevin 300.0 300.0 20.0 10818
fix 2 all nve

# Output
dump 1 all custom 200 /home/hy/code/projects/heroine/output/gradio_run_8697aa35/trajectory.dump id mol type x y z
compute rg all gyration
thermo_style custom step c_rg temp epair
thermo 200

# Run
run 50000
Generated 10 of 10 mixed pair_coeff terms from arithmetic mixing rule
Per MPI rank memory allocation (min/avg/max) = 12.26 | 12.26 | 12.26 Mbytes
   Step          c_rg           Temp          E_pair    
         0   18.921385      0              1.6868078    
       200   18.900204      274.44958      2.6199905    
       400   18.993548      293.00066      1.9077652    
       600   18.929741      311.71263      2.803691     
       800   18.858103      343.56398      1.8753274    
      1000   18.922933      286.10573      1.5445743    
      1200   18.926981      391.97751      1.2009776    
      1400   18.930208      344.27734      2.963008     
      1600   19.023896      368.29884      3.2662674    
      1800   18.945518      330.90768      1.4366689    
      2000   19.027176      294.07246      1.7552338    
      2200   19.005776      319.13964      2.3423       
      2400   18.976277      264.86749      2.5897795    
      2600   19.062598      319.51213      1.8594859    
      2800   19.065768      360.36422      1.9654474    
      3000   19.184426      307.91186      2.2743112    
      3200   19.165403      301.55995      2.3982667    
      3400   19.190264      372.13384      1.6172925    
      3600   19.092533      269.93694      2.9102581    
      3800   19.169238      311.85426      1.9355044    
      4000   19.091762      241.72235      1.5849054    
      4200   19.06897       249.17062      2.6414565    
      4400   19.081348      239.07096      1.8408714    
      4600   19.123965      340.40174      2.6462833    
      4800   19.157631      312.61217      2.8609844    
      5000   19.082186      338.90117      1.2895931    
      5200   19.05411       285.62444      1.696927     
      5400   19.243152      316.90639      1.7470622    
      5600   19.393958      247.8986       0.28023507   
      5800   19.467831      291.10013      1.2560387    
      6000   19.547689      260.77225      3.4823772    
      6200   19.625453      275.38544      1.6436288    
      6400   19.547232      309.45537      1.9473126    
      6600   19.488312      294.01043      1.4250518    
      6800   19.644664      320.64981      3.3820756    
      7000   19.651332      323.49989      2.2007829    
      7200   19.593849      304.36579      2.8633023    
      7400   19.594666      327.3424       1.5837232    
      7600   19.653972      291.9438       1.3635404    
      7800   19.632954      263.28879      1.707426     
      8000   19.632639      342.39337      1.2514138    
      8200   19.756523      340.37605      0.91873996   
      8400   19.800333      380.05356      1.0975047    
      8600   19.893916      251.58665      2.1504019    
      8800   19.950428      243.47586      1.3405453    
      9000   19.962418      286.34479      1.5982554    
      9200   19.949744      264.14397      1.311084     
      9400   19.932338      331.39618      1.4558315    
      9600   20.009951      361.0927       1.7012682    
      9800   20.046664      397.78752      0.79089439   
     10000   19.977894      281.28543      1.7731935    
     10200   19.981841      264.25857      2.0351516    
     10400   19.956395      370.52649      2.0815064    
     10600   19.961511      274.34361      2.023809     
     10800   20.036249      367.24356      1.8747728    
     11000   20.035905      291.24708      2.0896888    
     11200   20.087393      309.89173      3.5189955    
     11400   20.050708      302.48664      4.9503774    
     11600   19.958401      372.76509      4.3470226    
     11800   19.970902      313.8089       2.395313     
     12000   19.952513      307.66927      1.8120044    
     12200   20.074312      285.56511      3.4199583    
     12400   20.090516      281.17277      3.4567873    
     12600   20.275795      359.96148      4.4029686    
     12800   20.257242      319.27405      2.4543566    
     13000   20.309609      250.18847      1.7174745    
     13200   20.302268      305.57217      3.0249845    
     13400   20.357931      312.23321      3.3655998    
     13600   20.449238      336.73746      2.3812537    
     13800   20.476914      274.28808      1.678617     
     14000   20.5448        239.5896       1.4255292    
     14200   20.470051      346.45199      3.385062     
     14400   20.493483      351.78715      2.3697005    
     14600   20.617709      307.43609      4.6750288    
     14800   20.58413       380.62294      1.506861     
     15000   20.548266      301.38289      1.211718     
     15200   20.660501      270.55505      0.97663428   
     15400   20.655919      292.04031      2.7329338    
     15600   20.626464      301.85279      1.7758862    
     15800   20.652143      298.1809       1.9836551    
     16000   20.546754      192.14936      1.4761341    
     16200   20.606013      361.78884      2.8983908    
     16400   20.561141      283.91253      3.539049     
     16600   20.528123      257.0381       1.760529     
     16800   20.551582      231.21891      1.5887315    
     17000   20.486545      308.16404      3.4453442    
     17200   20.286099      293.20846      2.240911     
     17400   20.447606      237.52952      2.4654941    
     17600   20.400515      369.66895      1.3323595    
     17800   20.336924      231.29405      0.82351053   
     18000   20.211633      319.96895      1.9849546    
     18200   20.322954      302.8619       3.1811992    
     18400   20.44122       270.59176      3.4892245    
     18600   20.33182       340.88354      2.2398747    
     18800   20.193963      352.59919      3.2524575    
     19000   20.131991      300.92111      0.99644303   
     19200   20.017488      387.72633      0.99602517   
     19400   19.991277      295.27016      3.8230621    
     19600   19.837109      286.46086      2.0709508    
     19800   19.76009       306.2625       2.8199786    
     20000   19.782765      335.85095      2.3914152    
     20200   19.804322      323.48748      4.0900971    
     20400   19.886009      330.3242       1.8092141    
     20600   19.976463      369.02757      2.2499397    
     20800   19.93399       346.98466      1.8831245    
     21000   19.968789      299.23211      1.6063697    
     21200   19.92093       334.27096      2.0035547    
     21400   19.971923      242.75241      2.9181151    
     21600   19.970203      259.8009       1.7972735    
     21800   19.888363      297.03935      2.9337917    
     22000   19.86485       317.56836      2.3494082    
     22200   19.992118      292.79301      3.556665     
     22400   20.030205      382.10721      2.0671201    
     22600   20.056695      356.52127      2.0649855    
     22800   20.185463      218.47374      2.7969427    
     23000   20.111102      305.0974       3.1229792    
     23200   20.124328      307.72938      1.9436462    
     23400   20.069753      325.65599      1.8892211    
     23600   19.957681      342.5558       1.7534204    
     23800   20.197673      311.74003      1.7608044    
     24000   20.156762      279.10095      2.4955516    
     24200   20.138719      362.56375      3.5185974    
     24400   19.955439      418.67793      1.8729628    
     24600   19.938263      277.71916      1.611377     
     24800   19.815334      309.94212      2.2051968    
     25000   19.707028      276.60057      2.7553531    
     25200   19.727135      369.42833      2.5698672    
     25400   19.706522      234.76675      1.5463146    
     25600   19.687041      308.27525      3.0329958    
     25800   19.672196      320.22556      1.6441496    
     26000   19.738063      262.8432       1.2677544    
     26200   19.71571       273.28968      1.8890708    
     26400   19.626876      347.9966       2.4809763    
     26600   19.494723      290.94269      1.8434643    
     26800   19.502402      309.25432      1.8214232    
     27000   19.519911      352.11292      1.1294222    
     27200   19.47437       308.66917      1.0762006    
     27400   19.519619      323.57965      2.3624565    
     27600   19.478221      290.28919      2.8440099    
     27800   19.638723      356.51081      1.8852419    
     28000   19.704597      315.06595      2.3784478    
     28200   19.719919      246.88624      3.1745134    
     28400   19.642838      293.96943      3.0536717    
     28600   19.716619      261.97017      4.0428021    
     28800   19.806481      267.51364      1.7245078    
     29000   19.830505      370.81188      1.4548175    
     29200   19.78095       264.80116      3.8316634    
     29400   19.745354      337.43885      2.80699      
     29600   19.694587      354.75959      1.4522866    
     29800   19.857636      348.86636      3.4508611    
     30000   19.834789      287.67108      2.6425374    
     30200   19.816495      254.31492      2.7933461    
     30400   19.787836      373.21079      1.714556     
     30600   19.799844      273.24978      3.1450471    
     30800   19.785267      389.86481      2.5625371    
     31000   19.696031      300.44213      1.9140437    
     31200   19.6304        278.13589      2.2411531    
     31400   19.633963      274.34099      1.9468388    
     31600   19.611531      297.94115      2.3419776    
     31800   19.696829      328.23212      1.7301668    
     32000   19.686766      276.6326       1.8539476    
     32200   19.574523      282.33813      1.8667072    
     32400   19.524765      327.60223      2.13084      
     32600   19.528017      291.83235      1.8361585    
     32800   19.544566      279.83391      1.7912069    
     33000   19.594027      338.24127      2.5418447    
     33200   19.558192      294.8048       1.2720903    
     33400   19.605438      313.18513      0.95775596   
     33600   19.542421      343.09798      2.9626616    
     33800   19.530938      300.86481      1.4770447    
     34000   19.54025       284.28394      2.2748562    
     34200   19.455751      341.96838      2.005504     
     34400   19.434663      271.05982      4.4136848    
     34600   19.450625      300.61786      2.9169344    
     34800   19.4374        292.99267      2.4187783    
     35000   19.491074      292.61748      2.5117859    
     35200   19.477959      241.95165      2.2010879    
     35400   19.446665      340.23453      3.6128669    
     35600   19.540769      304.33483      2.4123828    
     35800   19.539044      259.1515       3.2029903    
     36000   19.625266      301.37246      4.537665     
     36200   19.660424      424.73198      2.9290663    
     36400   19.472041      274.11991      1.2634921    
     36600   19.725142      268.2089       2.0922015    
     36800   19.769612      298.0653       1.3939648    
     37000   19.695534      367.65744      3.051634     
     37200   19.711668      344.81925      2.1726654    
     37400   19.57789       262.35271      1.8968623    
     37600   19.58434       307.48864      2.0591987    
     37800   19.683353      283.08359      2.776163     
     38000   19.663745      306.36974      3.1823304    
     38200   19.668339      339.75968      1.3457828    
     38400   19.631083      266.28804      2.7320674    
     38600   19.652186      309.29059      1.3701676    
     38800   19.777467      311.08752      3.2899962    
     39000   19.818473      227.58856      1.8382129    
     39200   19.918407      314.5836       1.643191     
     39400   19.98945       234.33035      2.5840657    
     39600   20.002883      311.50043      1.7785018    
     39800   20.055354      367.3745       2.0473909    
     40000   19.987478      313.20569      2.3439842    
     40200   19.963745      317.2901       3.217074     
     40400   19.923426      337.9552       1.875496     
     40600   19.871722      316.14166      3.9311774    
     40800   19.799003      304.67709      2.5940539    
     41000   19.706919      332.95098      1.7516503    
     41200   19.580576      384.46808      1.411705     
     41400   19.590944      242.30308      2.4703355    
     41600   19.657064      302.25941      4.0895672    
     41800   19.830592      289.44269      3.647472     
     42000   19.912652      255.07126      2.6913987    
     42200   19.985481      308.75692      2.854466     
     42400   19.987738      373.30026      2.3166737    
     42600   20.062393      255.55534      2.0389148    
     42800   19.964411      293.18252      2.3409415    
     43000   19.812503      274.4832       3.1994683    
     43200   19.797404      326.3409       2.8897164    
     43400   19.7901        276.10301      1.2390629    
     43600   19.756874      357.93464      3.3217685    
     43800   19.881847      341.29698      3.0703106    
     44000   19.8564        371.39728      2.2522521    
     44200   19.804888      293.61059      3.0798168    
     44400   19.830104      289.91058      1.3490878    
     44600   19.746698      249.51004      1.9728361    
     44800   19.806817      341.27508      2.4320537    
     45000   19.747011      270.46519      4.1059581    
     45200   19.62838       325.71446      2.4849987    
     45400   19.596787      306.76229      1.7065755    
     45600   19.554199      330.09782      1.5858136    
     45800   19.521402      280.86626      2.505749     
     46000   19.387508      281.65249      3.1581903    
     46200   19.469689      340.33641      3.0152876    
     46400   19.562958      379.09125      5.4377485    
     46600   19.46984       327.33138      1.5013557    
     46800   19.318455      299.66796      1.6930925    
     47000   19.325704      340.10145      1.7176703    
     47200   19.324952      286.47938      1.5749387    
     47400   19.429197      303.75007      2.2057441    
     47600   19.384324      314.14916      2.6905673    
     47800   19.432609      312.08628      3.4574296    
     48000   19.505782      309.70409      1.8269832    
     48200   19.57891       299.77375      2.812315     
     48400   19.678868      319.73206      2.0246611    
     48600   19.542527      327.99757      1.4322102    
     48800   19.59007       383.38115      1.5725752    
     49000   19.477652      343.17085      2.8962111    
     49200   19.582909      271.71656      2.2173643    
     49400   19.450025      249.83284      2.590957     
     49600   19.505671      315.41318      3.013456     
     49800   19.377304      343.59259      1.7403257    
     50000   19.496988      295.72009      1.7046658    
Loop time of 0.392493 on 1 procs for 50000 steps with 38 atoms

Performance: 11006.564 ns/day, 0.002 hours/ns, 127390.787 timesteps/s, 4.841 Matom-step/s
100.0% CPU use with 1 MPI tasks x 1 OpenMP threads

MPI task timing breakdown:
Section |  min time  |  avg time  |  max time  |%varavg| %total
---------------------------------------------------------------
Pair    | 0.056338   | 0.056338   | 0.056338   |   0.0 | 14.35
Bond    | 0.1988     | 0.1988     | 0.1988     |   0.0 | 50.65
Neigh   | 0.0052004  | 0.0052004  | 0.0052004  |   0.0 |  1.32
Comm    | 0.015967   | 0.015967   | 0.015967   |   0.0 |  4.07
Output  | 0.013014   | 0.013014   | 0.013014   |   0.0 |  3.32
Modify  | 0.093968   | 0.093968   | 0.093968   |   0.0 | 23.94
Other   |            | 0.009207   |            |       |  2.35

Nlocal:             38 ave          38 max          38 min
Histogram: 1 0 0 0 0 0 0 0 0 0
Nghost:             67 ave          67 max          67 min
Histogram: 1 0 0 0 0 0 0 0 0 0
Neighs:            165 ave         165 max         165 min
Histogram: 1 0 0 0 0 0 0 0 0 0

Total # of neighbors = 165
Ave neighs/atom = 4.3421053
Ave special neighs/atom = 7.4736842
Neighbor list builds = 309
Dangerous builds = 0
Total wall time: 0:00:00
