ITEM: TIMESTEP
0
ITEM: NUMBER OF ATOMS
38
ITEM: BOX BOUNDS pp pp pp
-2.6905500000000000e+01 2.6905500000000000e+01
-2.6905500000000000e+01 2.6905500000000000e+01
-2.6905500000000000e+01 2.6905500000000000e+01
ITEM: ATOMS id mol type x y z
27 3 2 -21.228 -0.159733 -16.3966
25 3 2 -19.487 -0.457503 -17.8562
28 3 2 -17.3071 -0.547331 -16.675
21 3 3 -20.3637 0.235721 -16.1171
26 3 2 -20.2114 1.19312 -17.9346
16 2 2 -17.9746 5.18207 -13.7385
19 3 1 -18.2742 1.11914 -16.9695
20 3 1 -19.6393 0.488733 -17.2938
22 3 3 -17.4773 0.285483 -16.165
23 3 2 -17.7403 1.35157 -17.9153
24 3 2 -18.4344 2.07722 -16.4311
35 4 2 2.73985 -14.1168 -11.0597
37 4 2 0.999103 -13.8188 -9.59975
38 4 2 4.92013 -14.2071 -9.87881
29 4 1 3.95319 -12.5405 -10.1731
30 4 1 2.58783 -13.1706 -10.4971
31 4 3 1.86363 -13.4237 -9.32034
32 4 3 4.7501 -13.3743 -9.36873
33 4 2 4.48694 -12.3081 -11.119
34 4 2 3.79319 -11.5825 -9.63465
36 4 2 2.0158 -12.466 -11.1378
14 2 2 -20.3726 5.10717 -13.0548
10 2 1 -19.6794 5.81508 -12.554
11 2 1 -18.2489 5.29889 -12.6684
12 2 3 -17.339 6.1526 -12.0225
15 2 2 -19.9705 5.90433 -11.486
17 2 2 -18.1907 4.29902 -12.1895
13 2 2 -19.7724 6.80905 -13.0402
18 2 2 -17.3746 7.03078 -12.4812
4 1 2 -22.0288 -7.7842 19.9933
5 1 2 -22.6286 -9.48617 19.9789
7 1 2 -20.2306 -9.41094 19.2956
1 1 1 -21.9357 -8.77807 20.4797
2 1 1 -20.505 -9.29403 20.3656
6 1 2 -22.2271 -8.68878 21.5476
8 1 2 -20.4468 -10.2938 20.8447
3 1 3 -19.5954 -8.44013 21.0115
9 1 2 -19.6308 -7.56215 20.5524
ITEM: TIMESTEP
200
ITEM: NUMBER OF ATOMS
38
ITEM: BOX BOUNDS pp pp pp
-2.6905500000000000e+01 2.6905500000000000e+01
-2.6905500000000000e+01 2.6905500000000000e+01
-2.6905500000000000e+01 2.6905500000000000e+01
ITEM: ATOMS id mol type x y z
27 3 2 -21.2773 -0.102279 -15.9271
25 3 2 -19.682 -0.434762 -17.5628
28 3 2 -17.377 -0.563061 -16.6431
21 3 3 -20.3285 0.215475 -15.8731
26 3 2 -20.4696 1.13601 -17.6735
16 2 2 -18.0979 4.80507 -13.163
19 3 1 -18.3189 1.15519 -17.0269
20 3 1 -19.7276 0.51595 -17.12
22 3 3 -17.4912 0.30169 -16.2434
23 3 2 -17.8921 1.32353 -17.9647
24 3 2 -18.4288 2.11031 -16.446
35 4 2 3.07564 -14.2478 -10.6965
37 4 2 1.10971 -13.7924 -9.6228
38 4 2 5.0989 -14.2768 -9.51289
29 4 1 4.27777 -12.5249 -9.98236
30 4 1 2.90827 -13.2174 -10.3676
31 4 3 1.97245 -13.2617 -9.34364
32 4 3 5.01287 -13.3536 -9.09225
33 4 2 4.78761 -12.4498 -10.99
34 4 2 4.1358 -11.5652 -9.59625
36 4 2 2.60224 -12.593 -11.2089
14 2 2 -20.4858 4.90521 -12.296
10 2 1 -19.7501 5.72956 -12.036
11 2 1 -18.3543 5.12772 -12.1055
12 2 3 -17.3839 6.11572 -11.6785
15 2 2 -19.8888 5.98283 -10.9222
17 2 2 -18.1553 4.26993 -11.3658
13 2 2 -19.7742 6.61367 -12.7677
18 2 2 -17.376 6.98251 -12.1397
4 1 2 -21.5712 -7.30283 20.0065
5 1 2 -22.493 -8.69478 19.3663
7 1 2 -20.1025 -9.25002 19.161
1 1 1 -21.8123 -8.37294 20.1517
2 1 1 -20.6048 -9.26623 20.1865
6 1 2 -22.3168 -8.53072 21.1502
8 1 2 -20.8704 -10.3113 20.3116
3 1 3 -19.7993 -8.69194 21.2591
9 1 2 -19.5677 -7.81683 20.9
ITEM: TIMESTEP
400
ITEM: NUMBER OF ATOMS
38
ITEM: BOX BOUNDS pp pp pp
-2.6905500000000000e+01 2.6905500000000000e+01
-2.6905500000000000e+01 2.6905500000000000e+01
-2.6905500000000000e+01 2.6905500000000000e+01
ITEM: ATOMS id mol type x y z
27 3 2 -21.7417 -0.105285 -16.5622
25 3 2 -20.0486 0.0213451 -18.2399
28 3 2 -17.7008 -0.0950847 -17.1617
21 3 3 -20.8286 0.328601 -16.3063
26 3 2 -20.7749 1.72821 -17.9756
16 2 2 -17.8049 5.16136 -13.1248
19 3 1 -18.8846 1.37332 -17.0194
20 3 1 -20.2228 0.814859 -17.4868
22 3 3 -17.9356 0.475392 -16.452
23 3 2 -18.4354 1.87355 -17.8626
24 3 2 -19.1169 2.18919 -16.2603
35 4 2 3.19513 -13.9648 -11.0206
37 4 2 1.15655 -13.5372 -9.95084
38 4 2 4.99367 -14.1617 -9.30547
29 4 1 4.20206 -12.3532 -9.82538
30 4 1 2.92096 -12.972 -10.5069
31 4 3 1.97236 -13.2888 -9.52478
32 4 3 4.72438 -13.2629 -8.90968
33 4 2 4.97028 -12.1338 -10.5774
34 4 2 3.98883 -11.4102 -9.23552
36 4 2 2.60253 -12.2433 -11.2283
14 2 2 -20.0294 4.57915 -12.5655
10 2 1 -19.5911 5.43379 -12.0357
11 2 1 -18.0827 5.20038 -12.0685
12 2 3 -17.3454 6.20124 -11.3286
15 2 2 -20.0642 5.4073 -11.0278
17 2 2 -17.8609 4.25315 -11.582
13 2 2 -19.8446 6.35909 -12.5275
18 2 2 -17.2847 6.89331 -11.9225
4 1 2 -21.1599 -7.22941 20.4285
5 1 2 -21.787 -8.40535 19.1007
7 1 2 -19.434 -8.80274 19.7135
1 1 1 -21.4546 -8.26722 20.184
2 1 1 -20.2314 -9.12725 20.3172
6 1 2 -22.3366 -8.58822 20.8043
8 1 2 -20.5101 -10.1271 20.018
3 1 3 -19.8601 -9.2521 21.6446
9 1 2 -19.7978 -8.33097 22.0748
ITEM: TIMESTEP
600
ITEM: NUMBER OF ATOMS
38
ITEM: BOX BOUNDS pp pp pp
-2.6905500000000000e+01 2.6905500000000000e+01
-2.6905500000000000e+01 2.6905500000000000e+01
-2.6905500000000000e+01 2.6905500000000000e+01
ITEM: ATOMS id mol type x y z
27 3 2 -21.7516 0.567097 -16.7307
25 3 2 -20.0849 -0.0149273 -18.1701
28 3 2 -18.0616 -0.601417 -17.0608
21 3 3 -20.79 0.640819 -16.4827
26 3 2 -20.4416 1.77332 -18.1645
16 2 2 -17.4109 5.01575 -12.5372
19 3 1 -18.6009 1.30629 -17.176
20 3 1 -20.032 0.906474 -17.6124
22 3 3 -17.8998 0.26901 -16.554
23 3 2 -18.0514 1.64928 -18.0781
24 3 2 -18.5918 2.16357 -16.5096
35 4 2 3.06512 -13.5635 -11.2576
37 4 2 1.07495 -13.745 -9.77411
38 4 2 5.36552 -13.992 -10.0837
29 4 1 4.12132 -12.4831 -9.80737
30 4 1 2.82252 -12.972 -10.3973
31 4 3 2.0243 -13.6445 -9.41902
32 4 3 4.91887 -13.4901 -9.31348
33 4 2 4.73457 -11.942 -10.5348
34 4 2 3.88922 -11.8173 -8.88274
36 4 2 2.24084 -12.0579 -10.8084
14 2 2 -19.5439 4.17931 -12.6383
10 2 1 -19.3318 4.79824 -11.7859
11 2 1 -17.7901 4.74878 -11.5678
12 2 3 -17.5081 5.73812 -10.5656
15 2 2 -19.8477 4.50542 -10.8467
17 2 2 -17.4071 3.77867 -11.3061
13 2 2 -19.6713 5.81001 -12.0814
18 2 2 -17.9222 6.57121 -10.8716
4 1 2 -21.1594 -7.26191 20.3762
5 1 2 -21.4767 -8.24669 18.9082
7 1 2 -19.2046 -8.76442 19.8503
1 1 1 -21.286 -8.32971 20.0043
2 1 1 -20.0824 -9.15334 20.3562
6 1 2 -22.1867 -8.70382 20.576
8 1 2 -20.1851 -10.1885 20.1425
3 1 3 -19.8809 -9.11424 21.7452
9 1 2 -19.7747 -8.19069 22.0381
ITEM: TIMESTEP
800
ITEM: NUMBER OF ATOMS
38
ITEM: BOX BOUNDS pp pp pp
-2.6905500000000000e+01 2.6905500000000000e+01
-2.6905500000000000e+01 2.6905500000000000e+01
-2.6905500000000000e+01 2.6905500000000000e+01
ITEM: ATOMS id mol type x y z
27 3 2 -21.7231 1.28334 -16.7272
25 3 2 -20.0114 0.504817 -18.3363
28 3 2 -18.1247 -0.526957 -17.033
21 3 3 -20.7501 1.0649 -16.475
26 3 2 -20.1642 2.3065 -17.9442
16 2 2 -17.8912 5.65498 -12.3828
19 3 1 -18.4162 1.38838 -17.0672
20 3 1 -19.8765 1.3213 -17.5456
22 3 3 -17.9654 0.24019 -16.3737
23 3 2 -17.6869 1.66746 -17.9019
24 3 2 -18.4165 2.1716 -16.2578
35 4 2 3.3149 -13.1532 -11.2497
37 4 2 1.44852 -14.1317 -9.89472
38 4 2 5.45679 -13.4689 -10.0153
29 4 1 4.09289 -12.1925 -9.55509
30 4 1 2.92527 -12.8481 -10.2968
31 4 3 2.30449 -13.8178 -9.52633
32 4 3 5.04183 -13.1417 -9.19046
33 4 2 4.45723 -11.3705 -10.2736
34 4 2 3.75102 -11.7682 -8.57152
36 4 2 2.13265 -12.0345 -10.4718
14 2 2 -19.7344 4.23651 -12.7747
10 2 1 -19.4137 4.44771 -11.7144
11 2 1 -18.0141 4.94441 -11.5952
12 2 3 -17.679 5.53519 -10.3182
15 2 2 -19.6213 3.56519 -10.982
17 2 2 -17.335 4.1258 -11.8396
13 2 2 -20.0834 5.12297 -11.4079
18 2 2 -18.2526 6.37408 -10.1497
4 1 2 -20.9866 -7.33703 19.8161
5 1 2 -21.8215 -8.68605 18.8567
7 1 2 -19.5781 -9.50515 19.4037
1 1 1 -21.3972 -8.37696 19.8255
2 1 1 -20.2972 -9.35338 20.227
6 1 2 -22.2601 -8.44026 20.5295
8 1 2 -20.8331 -10.3313 20.3383
3 1 3 -19.7098 -9.022 21.4173
9 1 2 -19.2905 -8.16476 21.2332
ITEM: TIMESTEP
1000
ITEM: NUMBER OF ATOMS
38
ITEM: BOX BOUNDS pp pp pp
-2.6905500000000000e+01 2.6905500000000000e+01
-2.6905500000000000e+01 2.6905500000000000e+01
-2.6905500000000000e+01 2.6905500000000000e+01
ITEM: ATOMS id mol type x y z
27 3 2 -21.6188 1.18029 -17.1088
25 3 2 -19.608 0.888299 -18.4295
28 3 2 -17.7322 -0.131408 -16.8933
21 3 3 -20.7297 1.26502 -16.6843
26 3 2 -20.0539 2.64198 -17.9436
16 2 2 -17.4873 6.20002 -12.6995
19 3 1 -18.3807 1.70179 -16.8244
20 3 1 -19.7347 1.62207 -17.5827
22 3 3 -17.8627 0.539265 -16.2063
23 3 2 -17.6919 2.15015 -17.5669
24 3 2 -18.4739 2.47072 -15.9689
35 4 2 3.01127 -12.7037 -11.4668
37 4 2 1.46627 -13.5038 -9.79753
38 4 2 5.40212 -13.7433 -10.8055
29 4 1 4.47943 -12.3051 -9.8329
30 4 1 3.01797 -12.4991 -10.4282
31 4 3 2.42564 -13.5616 -9.6311
32 4 3 5.20621 -13.5011 -9.87645
33 4 2 5.09111 -11.4777 -10.3547
34 4 2 4.40513 -12.0792 -8.72603
36 4 2 2.34621 -11.6016 -10.2844
14 2 2 -18.6171 3.87056 -13.1898
10 2 1 -18.6892 4.46447 -12.2374
11 2 1 -17.5469 5.38461 -12.0011
12 2 3 -17.6383 5.94073 -10.6558
15 2 2 -18.726 3.80754 -11.3543
17 2 2 -16.6049 4.74578 -12.0872
13 2 2 -19.6487 5.02178 -12.3754
18 2 2 -18.3883 6.65738 -10.7504
4 1 2 -19.6914 -7.52967 19.1539
5 1 2 -21.232 -8.32102 18.7753
7 1 2 -19.6383 -10.0567 19.6149
1 1 1 -20.6021 -8.03484 19.5946
2 1 1 -20.2234 -9.4218 20.2873
6 1 2 -21.16 -7.40929 20.3152
8 1 2 -21.1802 -10.0046 20.5576
3 1 3 -19.5803 -9.16512 21.5177
9 1 2 -18.7218 -8.75924 21.2203
ITEM: TIMESTEP
1200
ITEM: NUMBER OF ATOMS
38
ITEM: BOX BOUNDS pp pp pp
-2.6905500000000000e+01 2.6905500000000000e+01
-2.6905500000000000e+01 2.6905500000000000e+01
-2.6905500000000000e+01 2.6905500000000000e+01
ITEM: ATOMS id mol type x y z
27 3 2 -21.4534 1.43145 -16.8986
21 3 3 -20.5755 1.42839 -16.4129
25 3 2 -19.4556 0.686913 -18.031
28 3 2 -17.791 0.0474544 -16.3672
26 3 2 -19.7484 2.48128 -18.0147
19 3 1 -18.1712 1.88166 -16.6606
20 3 1 -19.5284 1.58633 -17.3969
22 3 3 -17.7741 0.857695 -15.8266
23 3 2 -17.3965 2.04499 -17.4343
24 3 2 -18.2272 2.8802 -16.0965
37 4 2 1.51281 -13.6408 -10.2128
31 4 3 2.35123 -13.5513 -9.69978
35 4 2 3.33138 -12.6922 -11.3292
38 4 2 5.4453 -13.7008 -10.596
29 4 1 4.50223 -12.1834 -9.72586
30 4 1 3.12908 -12.5056 -10.2989
32 4 3 5.36792 -13.251 -9.72772
33 4 2 4.916 -11.4152 -10.3817
34 4 2 4.40613 -11.7465 -8.77224
36 4 2 2.59799 -11.5428 -10.2013
16 2 2 -17.0938 6.21369 -12.893
14 2 2 -17.676 3.96212 -13.2808
10 2 1 -18.2306 4.41785 -12.4871
11 2 1 -17.3445 5.51107 -11.9943
12 2 3 -17.8134 6.24377 -10.8754
15 2 2 -18.4338 3.64691 -11.6918
17 2 2 -16.4143 4.96928 -11.6842
13 2 2 -19.2681 4.84751 -12.8733
18 2 2 -18.5108 6.79381 -11.1937
5 1 2 -20.34 -8.47524 18.5339
1 1 1 -20.1585 -8.12619 19.5807
6 1 2 -20.9323 -7.39074 19.938
4 1 2 -19.1487 -7.74366 19.6221
7 1 2 -19.3896 -10.1879 20.026
8 1 2 -21.0815 -9.82262 20.1488
2 1 1 -20.115 -9.4045 20.3978
3 1 3 -20.0264 -9.18246 21.77
9 1 2 -19.1469 -8.71994 21.9507
ITEM: TIMESTEP
1400
ITEM: NUMBER OF ATOMS
38
ITEM: BOX BOUNDS pp pp pp
-2.6905500000000000e+01 2.6905500000000000e+01
-2.6905500000000000e+01 2.6905500000000000e+01
-2.6905500000000000e+01 2.6905500000000000e+01
ITEM: ATOMS id mol type x y z
27 3 2 -21.3873 0.878963 -16.5657
21 3 3 -20.6814 1.34504 -16.1754
25 3 2 -19.4734 0.378939 -17.4846
28 3 2 -17.3966 0.0671986 -16.2411
26 3 2 -19.9057 2.08018 -17.91
19 3 1 -18.3483 1.77852 -16.3862
20 3 1 -19.6429 1.40738 -17.0692
22 3 3 -17.7825 0.741328 -15.6023
23 3 2 -17.5765 2.11432 -17.1492
24 3 2 -18.5676 2.58459 -15.6635
37 4 2 1.78891 -13.612 -10.2919
31 4 3 2.65624 -13.4029 -9.79179
35 4 2 3.67296 -12.8687 -11.5057
38 4 2 5.65483 -13.4089 -10.4965
29 4 1 4.58197 -11.902 -9.91638
30 4 1 3.32626 -12.4221 -10.5412
32 4 3 5.45012 -12.9822 -9.61948
33 4 2 5.09939 -11.1915 -10.6262
34 4 2 4.29665 -11.4601 -8.99601
36 4 2 2.69752 -11.5327 -10.7649
16 2 2 -16.6165 6.03792 -12.3521
14 2 2 -17.3125 3.84667 -12.8576
10 2 1 -18.0314 4.56182 -12.4454
11 2 1 -17.3088 5.53319 -11.6119
12 2 3 -18.2161 6.34117 -10.8895
15 2 2 -18.8372 3.86266 -11.9265
17 2 2 -16.7924 4.94629 -10.8338
13 2 2 -18.5558 5.01905 -13.2968
18 2 2 -18.6563 6.82824 -11.6417
5 1 2 -19.8566 -8.06753 18.7298
1 1 1 -20.0368 -7.87966 19.834
6 1 2 -21.0892 -7.814 19.9949
4 1 2 -19.4999 -6.9762 20.0937
7 1 2 -18.4137 -9.19271 20.3851
8 1 2 -20.2046 -9.93766 20.1245
2 1 1 -19.5576 -9.0994 20.5641
3 1 3 -19.7809 -9.03898 21.9537
9 1 2 -19.4921 -8.11959 22.2527
ITEM: TIMESTEP
1600
ITEM: NUMBER OF ATOMS
38
ITEM: BOX BOUNDS pp pp pp
-2.6905500000000000e+01 2.6905500000000000e+01
-2.6905500000000000e+01 2.6905500000000000e+01
-2.6905500000000000e+01 2.6905500000000000e+01
ITEM: ATOMS id mol type x y z
27 3 2 -21.4551 1.1897 -16.4509
21 3 3 -20.5206 1.29986 -16.0743
25 3 2 -19.5279 0.468799 -17.6538
28 3 2 -17.6991 -0.00640497 -16.194
26 3 2 -19.9158 2.3291 -17.7609
19 3 1 -18.2754 1.76132 -16.4472
20 3 1 -19.6169 1.50723 -17.1188
22 3 3 -17.899 0.714813 -15.5794
23 3 2 -17.5323 1.84786 -17.2511
24 3 2 -18.232 2.74679 -15.8388
37 4 2 1.78805 -13.3017 -10.3843
31 4 3 2.61784 -13.3454 -9.83714
35 4 2 3.58107 -12.576 -11.5297
38 4 2 5.50338 -13.6053 -10.4042
29 4 1 4.69159 -12.1698 -9.66807
30 4 1 3.39119 -12.3443 -10.4024
32 4 3 5.42544 -13.3109 -9.58179
33 4 2 5.312 -11.4761 -10.2405
34 4 2 4.56975 -11.7727 -8.63474
36 4 2 2.86088 -11.3732 -10.4983
16 2 2 -17.1756 6.42035 -12.2775
14 2 2 -17.1951 4.27373 -13.5044
10 2 1 -17.8677 4.54505 -12.6141
11 2 1 -17.1955 5.45091 -11.7086
12 2 3 -17.9065 5.65388 -10.4763
15 2 2 -18.0482 3.58845 -12.1557
17 2 2 -16.1381 5.03944 -11.5547
13 2 2 -18.8414 4.91397 -13.059
18 2 2 -18.8866 5.86807 -10.716
5 1 2 -19.9294 -8.03725 19.1859
1 1 1 -20.2264 -7.97029 20.2479
6 1 2 -21.3379 -7.97295 20.3099
4 1 2 -19.8456 -7.04681 20.5804
7 1 2 -18.5046 -9.23892 21.0329
8 1 2 -19.8508 -10.1788 20.3228
2 1 1 -19.6183 -9.25084 20.9304
3 1 3 -20.1382 -9.3771 22.1851
9 1 2 -19.8986 -8.58987 22.7243
ITEM: TIMESTEP
1800
ITEM: NUMBER OF ATOMS
38
ITEM: BOX BOUNDS pp pp pp
-2.6905500000000000e+01 2.6905500000000000e+01
-2.6905500000000000e+01 2.6905500000000000e+01
-2.6905500000000000e+01 2.6905500000000000e+01
ITEM: ATOMS id mol type x y z
27 3 2 -21.3306 1.30734 -15.8799
21 3 3 -20.4398 1.46255 -15.6285
25 3 2 -19.6434 0.54015 -17.2929
28 3 2 -17.7252 0.00942942 -16.0421
26 3 2 -19.963 2.32598 -17.3234
19 3 1 -18.179 1.84536 -16.3335
20 3 1 -19.5707 1.49417 -16.7352
22 3 3 -17.5662 0.855914 -15.5286
23 3 2 -17.5407 1.96736 -17.2346
24 3 2 -18.2752 2.87435 -15.8174
37 4 2 1.37447 -13.9348 -10.31
31 4 3 2.25226 -13.6933 -9.84283
35 4 2 3.57917 -13.5988 -11.4194
38 4 2 5.28507 -14.2596 -9.9351
29 4 1 4.3336 -12.5392 -9.71549
30 4 1 3.17331 -12.9894 -10.5982
32 4 3 5.09183 -13.6418 -9.17083
33 4 2 4.95387 -11.9641 -10.4324
34 4 2 3.92082 -11.9609 -8.93752
36 4 2 2.68684 -12.1725 -11.1622
16 2 2 -17.1234 6.53901 -11.9487
14 2 2 -17.4835 4.99384 -13.8202
10 2 1 -18.1184 4.80734 -12.9346
11 2 1 -17.396 5.47023 -11.6968
12 2 3 -18.0617 5.44251 -10.3597
15 2 2 -18.0435 3.68959 -12.7903
17 2 2 -16.4251 5.01709 -11.5684
13 2 2 -19.1641 5.09697 -13.1807
18 2 2 -19.0252 5.67343 -10.5069
5 1 2 -20.642 -8.29908 19.1889
1 1 1 -20.5856 -8.34586 20.2862
6 1 2 -21.6224 -8.37574 20.6877
4 1 2 -20.0354 -7.48307 20.7029
7 1 2 -18.7931 -9.58179 20.0788
8 1 2 -20.4273 -10.4511 20.0277
2 1 1 -19.8404 -9.66706 20.5429
3 1 3 -19.7559 -9.86793 21.9688
9 1 2 -19.1479 -9.20206 22.4245
ITEM: TIMESTEP
2000
ITEM: NUMBER OF ATOMS
38
ITEM: BOX BOUNDS pp pp pp
-2.6905500000000000e+01 2.6905500000000000e+01
-2.6905500000000000e+01 2.6905500000000000e+01
-2.6905500000000000e+01 2.6905500000000000e+01
ITEM: ATOMS id mol type x y z
27 3 2 -21.0344 1.36045 -15.2475
21 3 3 -20.1399 1.62647 -15.2451
25 3 2 -19.7219 0.422265 -16.8461
28 3 2 -17.1301 0.275245 -16.1607
26 3 2 -20.2572 2.11028 -17.2529
19 3 1 -18.1816 1.85293 -16.6208
20 3 1 -19.6761 1.47036 -16.5276
22 3 3 -17.3293 1.11133 -15.7386
23 3 2 -17.9234 1.87948 -17.6791
24 3 2 -18.1456 2.88494 -16.2222
37 4 2 1.33497 -13.9797 -10.0108
31 4 3 2.18326 -13.6849 -9.53389
35 4 2 3.41155 -14.1091 -11.0747
38 4 2 5.50298 -14.3442 -9.70711
29 4 1 4.4315 -12.7445 -9.79538
30 4 1 3.17748 -13.2328 -10.4478
32 4 3 5.10723 -13.7272 -9.02089
33 4 2 5.1572 -12.4332 -10.5569
34 4 2 4.15574 -11.7462 -9.26354
36 4 2 2.76568 -12.4334 -11.1965
16 2 2 -17.1829 6.77877 -11.5793
14 2 2 -17.6983 5.89136 -13.8292
10 2 1 -18.187 5.4633 -12.8988
11 2 1 -17.3368 5.69381 -11.6621
12 2 3 -17.9704 5.19832 -10.5854
15 2 2 -18.2241 4.29758 -13.0399
17 2 2 -16.3977 5.1368 -11.7983
13 2 2 -19.2172 5.83336 -12.7412
18 2 2 -18.8382 5.55309 -10.4748
5 1 2 -21.0919 -8.42606 19.4345
1 1 1 -20.8827 -8.32637 20.4698
6 1 2 -21.8289 -8.31299 21.0644
4 1 2 -20.302 -7.33878 20.4574
7 1 2 -19.1034 -9.37861 20.1191
8 1 2 -20.6542 -10.4227 20.5542
2 1 1 -20.0146 -9.50116 20.7767
3 1 3 -19.5553 -9.52335 22.1558
9 1 2 -19.3081 -8.57063 22.5207
ITEM: TIMESTEP
2200
ITEM: NUMBER OF ATOMS
38
ITEM: BOX BOUNDS pp pp pp
-2.6905500000000000e+01 2.6905500000000000e+01
-2.6905500000000000e+01 2.6905500000000000e+01
-2.6905500000000000e+01 2.6905500000000000e+01
ITEM: ATOMS id mol type x y z
27 3 2 -20.779 0.867588 -14.8337
21 3 3 -19.9833 1.50964 -15.0239
26 3 2 -20.3438 1.91284 -17.0362
25 3 2 -19.6993 0.345567 -16.7676
28 3 2 -17.4257 0.270613 -16.1903
19 3 1 -18.3074 1.94531 -16.66
20 3 1 -19.6939 1.3736 -16.4217
22 3 3 -17.353 1.24343 -16.0091
23 3 2 -17.9852 2.01229 -17.7019
24 3 2 -18.3313 2.95862 -16.2657
14 2 2 -17.208 6.0224 -13.7797
37 4 2 1.19665 -14.0861 -10.6687
31 4 3 1.95111 -13.884 -9.98289
35 4 2 3.44395 -13.7752 -11.4603
38 4 2 5.06073 -14.2614 -9.86205
32 4 3 4.64826 -13.6698 -9.15106
29 4 1 4.00876 -12.6266 -9.69232
30 4 1 2.94938 -13.0833 -10.6809
33 4 2 4.67995 -11.995 -10.2255
34 4 2 3.48978 -12.0211 -8.87904
36 4 2 2.49261 -12.1789 -11.1132
16 2 2 -16.5793 6.46267 -11.4602
10 2 1 -17.8948 5.68609 -13.017
11 2 1 -17.0912 5.50672 -11.7288
12 2 3 -17.8186 5.10528 -10.6106
15 2 2 -18.3319 4.71077 -13.3677
17 2 2 -16.2825 4.73839 -11.7858
13 2 2 -18.7194 6.43427 -12.8993
18 2 2 -18.6435 5.64784 -10.5034
5 1 2 -21.3961 -7.90172 19.9089
1 1 1 -20.9166 -7.83372 20.8784
6 1 2 -21.6074 -7.62997 21.7032
4 1 2 -20.2131 -7.0694 20.7462
8 1 2 -20.9344 -10.0416 21.2612
7 1 2 -19.5944 -9.4689 20.2256
2 1 1 -20.2723 -9.20419 21.0844
3 1 3 -19.4302 -9.26505 22.2712
9 1 2 -18.7563 -8.53751 22.1363
ITEM: TIMESTEP
2400
ITEM: NUMBER OF ATOMS
38
ITEM: BOX BOUNDS pp pp pp
-2.6905500000000000e+01 2.6905500000000000e+01
-2.6905500000000000e+01 2.6905500000000000e+01
-2.6905500000000000e+01 2.6905500000000000e+01
ITEM: ATOMS id mol type x y z
27 3 2 -20.3454 0.848753 -14.6593
21 3 3 -19.5519 1.31992 -14.9181
26 3 2 -20.53 2.17747 -16.5201
25 3 2 -19.6162 0.558449 -16.7691
28 3 2 -17.179 0.809239 -16.9576
19 3 1 -18.3766 2.30613 -16.7034
20 3 1 -19.6554 1.5527 -16.2673
22 3 3 -17.2149 1.64695 -16.4651
23 3 2 -18.2864 2.55015 -17.7675
24 3 2 -18.3029 3.29481 -16.1356
14 2 2 -17.3435 6.06024 -13.4551
37 4 2 1.29444 -13.7832 -11.1747
31 4 3 1.81372 -13.5525 -10.368
35 4 2 3.30381 -13.5628 -11.7593
38 4 2 4.71726 -14.4424 -10.0118
32 4 3 4.4478 -13.7263 -9.32473
29 4 1 4.00783 -12.6159 -10.0353
30 4 1 2.91908 -12.8976 -10.9916
33 4 2 4.82038 -12.1297 -10.6174
34 4 2 3.69233 -11.8192 -9.27771
36 4 2 2.55482 -11.9658 -11.5567
16 2 2 -16.0917 5.69381 -11.4441
10 2 1 -17.8638 6.01488 -12.4642
11 2 1 -17.0396 5.12605 -11.5881
12 2 3 -17.7649 4.82088 -10.4265
15 2 2 -18.892 5.57241 -12.6636
17 2 2 -16.8338 4.14983 -12.1286
13 2 2 -18.0411 6.98871 -11.9605
18 2 2 -17.9646 5.68966 -9.99302
5 1 2 -21.3024 -7.80377 19.8891
1 1 1 -20.7101 -7.83945 20.8442
6 1 2 -21.3442 -7.47319 21.6349
4 1 2 -19.9278 -7.07227 20.6642
8 1 2 -21.0149 -9.92381 21.3946
7 1 2 -19.5307 -9.71106 20.3719
2 1 1 -20.1402 -9.22507 21.1836
3 1 3 -19.4053 -9.23212 22.3958
9 1 2 -18.5847 -8.62177 22.2493
ITEM: TIMESTEP
2600
ITEM: NUMBER OF ATOMS
38
ITEM: BOX BOUNDS pp pp pp
-2.6905500000000000e+01 2.6905500000000000e+01
-2.6905500000000000e+01 2.6905500000000000e+01
-2.6905500000000000e+01 2.6905500000000000e+01
ITEM: ATOMS id mol type x y z
27 3 2 -20.2132 0.579268 -14.8445
21 3 3 -19.4166 1.0265 -15.0386
26 3 2 -20.5732 2.32739 -16.3171
25 3 2 -19.5941 1.03659 -17.0992
28 3 2 -17.221 1.52214 -16.9976
19 3 1 -18.4744 2.7463 -16.3737
20 3 1 -19.641 1.7564 -16.2933
22 3 3 -17.2264 2.15611 -16.3162
23 3 2 -18.5686 3.26637 -17.3244
24 3 2 -18.5735 3.51544 -15.515
14 2 2 -17.0412 5.23649 -13.4929
37 4 2 1.20894 -13.7455 -11.1163
31 4 3 1.87832 -13.4589 -10.4105
35 4 2 3.426 -13.384 -11.7848
38 4 2 5.22821 -13.9815 -10.0086
32 4 3 4.62714 -13.6347 -9.32913
29 4 1 4.03212 -12.4638 -9.89388
30 4 1 2.99227 -12.7798 -11.0023
33 4 2 4.82386 -11.7859 -10.3099
34 4 2 3.60345 -11.8428 -9.10798
36 4 2 2.51508 -11.8496 -11.4414
16 2 2 -15.9381 5.0614 -11.2515
10 2 1 -17.6023 5.6045 -12.627
11 2 1 -17.065 4.83478 -11.4204
12 2 3 -17.6673 5.1593 -10.2
15 2 2 -18.6761 5.50494 -12.8451
17 2 2 -17.1613 3.70301 -11.541
13 2 2 -17.3439 6.68165 -12.4724
18 2 2 -17.528 6.12008 -10.0285
5 1 2 -21.6332 -8.17575 20.492
1 1 1 -20.9232 -7.88204 21.2893
6 1 2 -21.536 -7.54731 22.1215
4 1 2 -20.3681 -7.00802 20.9211
8 1 2 -20.8772 -9.77976 21.9718
7 1 2 -19.6478 -9.48103 20.7252
2 1 1 -20.1176 -9.05233 21.6524
3 1 3 -19.1634 -8.61272 22.6706
9 1 2 -18.5687 -7.92871 22.2277
ITEM: TIMESTEP
2800
ITEM: NUMBER OF ATOMS
38
ITEM: BOX BOUNDS pp pp pp
-2.6905500000000000e+01 2.6905500000000000e+01
-2.6905500000000000e+01 2.6905500000000000e+01
-2.6905500000000000e+01 2.6905500000000000e+01
ITEM: ATOMS id mol type x y z
27 3 2 -20.0372 0.258915 -14.972
21 3 3 -19.3294 0.974884 -15.0308
26 3 2 -20.5741 2.02934 -16.2432
25 3 2 -19.3673 1.01848 -17.101
28 3 2 -17.0463 1.75793 -16.7887
19 3 1 -18.6125 2.81982 -16.3392
20 3 1 -19.5487 1.6151 -16.2303
22 3 3 -17.2108 2.57709 -16.2341
23 3 2 -18.8457 3.40088 -17.2904
24 3 2 -18.9296 3.45507 -15.4173
14 2 2 -17.1161 5.48392 -13.6314
37 4 2 1.66622 -14.1184 -11.7853
31 4 3 1.95622 -13.8078 -10.8918
35 4 2 3.74409 -13.507 -11.9471
38 4 2 4.59242 -14.378 -9.70816
32 4 3 4.23608 -13.7731 -8.99323
29 4 1 3.85534 -12.6526 -9.80879
30 4 1 3.07485 -12.9575 -11.1518
33 4 2 4.72502 -12.054 -10.1674
34 4 2 3.23079 -11.9716 -9.16984
36 4 2 2.66045 -11.9984 -11.6224
16 2 2 -16.2687 4.49189 -11.6397
10 2 1 -17.5568 5.8195 -12.7225
11 2 1 -17.3801 4.73594 -11.6974
12 2 3 -17.9735 5.13712 -10.414
15 2 2 -18.508 6.16049 -12.8368
17 2 2 -17.9363 3.85977 -12.0736
13 2 2 -17.0135 6.57189 -12.3144
18 2 2 -17.5848 6.01385 -10.2069
5 1 2 -21.6689 -8.44268 20.0924
1 1 1 -21.0386 -8.18901 21.071
6 1 2 -21.8177 -8.1858 21.8907
4 1 2 -20.5724 -7.16816 21.0918
8 1 2 -20.4664 -10.2606 21.3291
7 1 2 -19.2361 -9.23236 20.4874
2 1 1 -19.9802 -9.25353 21.3232
3 1 3 -19.4115 -9.03947 22.5994
9 1 2 -18.891 -8.17912 22.6061
ITEM: TIMESTEP
3000
ITEM: NUMBER OF ATOMS
38
ITEM: BOX BOUNDS pp pp pp
-2.6905500000000000e+01 2.6905500000000000e+01
-2.6905500000000000e+01 2.6905500000000000e+01
-2.6905500000000000e+01 2.6905500000000000e+01
ITEM: ATOMS id mol type x y z
27 3 2 -19.7812 0.366029 -15.1499
21 3 3 -19.3666 1.24593 -15.133
26 3 2 -20.5923 2.07731 -16.6138
25 3 2 -19.1069 1.09603 -17.1681
28 3 2 -16.9926 2.44787 -17.0457
19 3 1 -18.7295 3.11732 -16.4505
20 3 1 -19.5143 1.81289 -16.4312
22 3 3 -17.3783 2.93528 -16.2732
23 3 2 -18.8054 3.58855 -17.4484
24 3 2 -19.1717 3.70112 -15.6604
14 2 2 -16.7698 5.53568 -13.5774
37 4 2 1.41768 -13.7392 -11.1062
31 4 3 2.14767 -13.6313 -10.4477
35 4 2 3.49389 -13.6132 -11.9469
38 4 2 5.12684 -14.648 -9.73645
32 4 3 4.58226 -13.9869 -9.24684
29 4 1 4.31824 -12.8838 -10.0927
30 4 1 3.18325 -13.0507 -11.116
33 4 2 5.32566 -12.4751 -10.5499
34 4 2 4.0229 -12.0938 -9.39556
36 4 2 2.94107 -12.0584 -11.4447
16 2 2 -16.2837 4.63987 -11.3001
10 2 1 -17.092 6.05616 -12.6018
11 2 1 -17.2489 5.06584 -11.4587
12 2 3 -17.6216 5.76486 -10.2657
15 2 2 -18.0433 6.5356 -12.7829
17 2 2 -17.9562 4.2512 -11.7057
13 2 2 -16.3832 6.84286 -12.3929
18 2 2 -16.8377 6.16914 -9.89627
5 1 2 -21.6856 -8.74893 19.8769
1 1 1 -21.2262 -8.49481 20.8515
6 1 2 -22.0512 -8.60569 21.5621
4 1 2 -20.8351 -7.50361 20.8817
8 1 2 -20.4445 -10.5082 20.8563
7 1 2 -19.2789 -9.23259 20.4505
2 1 1 -20.0965 -9.49384 21.1983
3 1 3 -19.5671 -9.5496 22.4364
9 1 2 -19.3295 -8.6239 22.5854
ITEM: TIMESTEP
3200
ITEM: NUMBER OF ATOMS
38
ITEM: BOX BOUNDS pp pp pp
-2.6905500000000000e+01 2.6905500000000000e+01
-2.6905500000000000e+01 2.6905500000000000e+01
-2.6905500000000000e+01 2.6905500000000000e+01
ITEM: ATOMS id mol type x y z
26 3 2 -20.7751 2.42013 -15.6664
27 3 2 -19.8497 0.307628 -15.2842
21 3 3 -19.1873 1.06946 -15.2752
25 3 2 -19.7431 1.83208 -17.1325
28 3 2 -17.4754 3.02347 -17.2951
19 3 1 -18.8117 3.43272 -15.9224
20 3 1 -19.6542 2.15473 -16.0036
22 3 3 -17.4538 3.35996 -16.3376
23 3 2 -19.2825 4.17969 -16.6194
24 3 2 -18.9194 3.77518 -14.8836
14 2 2 -17.2443 4.80228 -13.4961
37 4 2 1.5524 -14.158 -11.3535
31 4 3 2.10355 -14.0471 -10.5434
35 4 2 3.70734 -13.9513 -11.7203
38 4 2 5.17357 -14.4757 -10.0639
32 4 3 4.64461 -13.9313 -9.39356
29 4 1 4.18963 -12.814 -10.0016
30 4 1 3.18967 -13.3031 -11.0656
33 4 2 5.00701 -12.1322 -10.3593
34 4 2 3.6992 -12.2049 -9.2423
36 4 2 2.77129 -12.5064 -11.6244
16 2 2 -16.9893 4.25697 -10.9351
10 2 1 -17.2694 5.60691 -12.735
11 2 1 -17.6895 4.97751 -11.3894
12 2 3 -18.0414 5.8747 -10.3677
15 2 2 -18.0262 6.32255 -13.0202
17 2 2 -18.6414 4.45568 -11.5968
18 2 2 -17.2387 6.24969 -10.1245
13 2 2 -16.2361 6.04937 -12.6187
5 1 2 -21.4745 -8.63776 19.5401
1 1 1 -21.1538 -8.4619 20.6293
6 1 2 -22.0631 -8.46421 21.2818
4 1 2 -20.5868 -7.47938 20.8308
8 1 2 -20.6835 -10.6226 20.7296
7 1 2 -19.3664 -9.53179 20.175
2 1 1 -20.2136 -9.61116 20.9346
3 1 3 -19.8801 -9.53116 22.34
9 1 2 -19.3955 -8.67938 22.3775
ITEM: TIMESTEP
3400
ITEM: NUMBER OF ATOMS
38
ITEM: BOX BOUNDS pp pp pp
-2.6905500000000000e+01 2.6905500000000000e+01
-2.6905500000000000e+01 2.6905500000000000e+01
-2.6905500000000000e+01 2.6905500000000000e+01
ITEM: ATOMS id mol type x y z
26 3 2 -20.8825 2.38568 -16.072
27 3 2 -19.9347 0.373673 -15.1123
21 3 3 -19.4757 1.17771 -15.1493
25 3 2 -19.647 1.48925 -17.1545
28 3 2 -17.5945 2.467 -17.3435
19 3 1 -18.915 3.315 -16.2481
20 3 1 -19.7807 2.02202 -16.2088
22 3 3 -17.5287 3.04737 -16.4905
23 3 2 -19.3109 4.02771 -17.0784
24 3 2 -19.0507 3.76446 -15.2818
14 2 2 -17.1072 4.66481 -13.3387
37 4 2 1.81626 -14.3612 -11.4681
31 4 3 2.3109 -14.0804 -10.6854
35 4 2 3.7354 -13.334 -11.9091
38 4 2 5.45519 -13.8778 -10.2993
32 4 3 4.82243 -13.7707 -9.56918
29 4 1 4.08447 -12.608 -9.84937
30 4 1 3.11275 -12.9656 -11.0784
33 4 2 4.64197 -11.7413 -10.1685
34 4 2 3.40206 -12.3876 -8.95399
36 4 2 2.59172 -12.0364 -11.2951
16 2 2 -17.7554 4.00166 -11.0048
10 2 1 -17.1867 5.45225 -12.5866
11 2 1 -18.0892 4.96653 -11.4487
12 2 3 -18.1934 6.00845 -10.471
15 2 2 -17.5752 6.31867 -13.1055
17 2 2 -19.129 4.82125 -11.8723
18 2 2 -17.3701 6.11214 -9.99424
13 2 2 -16.172 5.57449 -12.1396
5 1 2 -21.8719 -8.61216 19.2792
1 1 1 -21.5376 -8.43344 20.3274
6 1 2 -22.4625 -8.14381 20.8837
4 1 2 -20.7054 -7.67387 20.3311
8 1 2 -21.5243 -10.5707 20.836
7 1 2 -20.0317 -10.0115 20.1335
2 1 1 -20.857 -9.70876 20.8619
3 1 3 -20.4035 -9.67101 22.2036
9 1 2 -19.8006 -8.8691 22.3022
ITEM: TIMESTEP
3600
ITEM: NUMBER OF ATOMS
38
ITEM: BOX BOUNDS pp pp pp
-2.6905500000000000e+01 2.6905500000000000e+01
-2.6905500000000000e+01 2.6905500000000000e+01
-2.6905500000000000e+01 2.6905500000000000e+01
ITEM: ATOMS id mol type x y z
26 3 2 -20.6705 1.83665 -16.1938
27 3 2 -19.7536 0.0333101 -14.9892
21 3 3 -19.3347 0.951727 -14.9812
25 3 2 -19.4391 0.766607 -16.9645
28 3 2 -17.2983 1.6909 -17.1568
19 3 1 -18.6557 2.75652 -16.4655
20 3 1 -19.5864 1.51153 -16.2353
22 3 3 -17.3219 2.34397 -16.44
23 3 2 -18.8519 3.24789 -17.4602
24 3 2 -18.7334 3.54258 -15.711
14 2 2 -17.2864 4.70409 -13.5028
37 4 2 1.97998 -14.4101 -11.9939
31 4 3 2.48935 -14.3722 -11.1192
35 4 2 3.80366 -12.9126 -11.8777
38 4 2 5.38155 -13.8211 -10.364
32 4 3 4.85184 -13.7697 -9.55231
29 4 1 3.86718 -12.8353 -9.70124
30 4 1 3.08043 -13.07 -11.035
33 4 2 4.24596 -11.7716 -9.65949
34 4 2 3.19476 -12.974 -8.80457
36 4 2 2.41869 -12.2065 -11.1339
16 2 2 -18.5369 4.18245 -11.2973
10 2 1 -17.1221 5.28611 -12.5965
11 2 1 -18.3175 5.22605 -11.6678
12 2 3 -18.0658 5.96621 -10.5115
15 2 2 -16.9558 6.40557 -12.8294
17 2 2 -19.235 5.70893 -12.1706
18 2 2 -17.2689 5.52537 -10.0925
13 2 2 -16.3001 4.85331 -12.0944
5 1 2 -22.0248 -8.85802 19.1885
1 1 1 -21.4966 -8.59571 20.1048
6 1 2 -22.1752 -8.03813 20.8192
4 1 2 -20.5994 -7.97362 19.8659
8 1 2 -21.9643 -10.4555 20.8963
7 1 2 -20.4228 -10.5059 20.0708
2 1 1 -21.0757 -9.89688 20.7073
3 1 3 -20.3463 -9.58305 21.8895
9 1 2 -19.4452 -9.13393 21.6535
ITEM: TIMESTEP
3800
ITEM: NUMBER OF ATOMS
38
ITEM: BOX BOUNDS pp pp pp
-2.6905500000000000e+01 2.6905500000000000e+01
-2.6905500000000000e+01 2.6905500000000000e+01
-2.6905500000000000e+01 2.6905500000000000e+01
ITEM: ATOMS id mol type x y z
26 3 2 -20.5734 1.9074 -15.9085
27 3 2 -20.1052 -0.261031 -15.2427
21 3 3 -19.4034 0.44396 -15.1026
25 3 2 -19.7629 0.976522 -17.1435
28 3 2 -17.4453 1.70436 -17.4099
19 3 1 -18.6058 2.54754 -16.1545
20 3 1 -19.6203 1.44803 -16.1233
22 3 3 -17.3811 2.00014 -16.4551
23 3 2 -18.7598 3.25744 -16.9885
24 3 2 -18.5904 3.08814 -15.2335
14 2 2 -16.9638 4.8811 -13.6156
37 4 2 2.19753 -14.8827 -11.8685
31 4 3 2.6611 -14.5642 -11.0123
35 4 2 4.21779 -13.5022 -12.0257
38 4 2 5.65358 -14.1017 -10.2087
32 4 3 4.99005 -14.0083 -9.49646
29 4 1 4.10267 -12.9841 -10.0141
30 4 1 3.38557 -13.4123 -11.2811
33 4 2 4.61536 -12.0162 -10.21
34 4 2 3.45581 -12.7574 -9.15321
36 4 2 2.70955 -12.5585 -11.7023
16 2 2 -18.4167 4.32965 -11.6462
10 2 1 -16.954 5.49848 -12.6836
11 2 1 -18.271 5.34737 -11.913
12 2 3 -18.3137 6.21018 -10.8041
15 2 2 -16.7819 6.56106 -13.0848
17 2 2 -19.1443 5.64462 -12.6079
18 2 2 -17.6336 5.94042 -10.2008
13 2 2 -16.064 5.28477 -12.0063
5 1 2 -21.6737 -8.08416 19.1983
1 1 1 -21.0253 -7.87067 20.0608
6 1 2 -21.5788 -7.0702 20.5141
4 1 2 -20.0194 -7.53837 19.7001
8 1 2 -21.9484 -9.36518 21.3789
7 1 2 -20.5078 -9.834 20.4005
2 1 1 -20.9464 -9.04961 20.989
3 1 3 -20.0866 -8.88151 22.1068
9 1 2 -19.176 -8.74987 21.7288
ITEM: TIMESTEP
4000
ITEM: NUMBER OF ATOMS
38
ITEM: BOX BOUNDS pp pp pp
-2.6905500000000000e+01 2.6905500000000000e+01
-2.6905500000000000e+01 2.6905500000000000e+01
-2.6905500000000000e+01 2.6905500000000000e+01
ITEM: ATOMS id mol type x y z
26 3 2 -20.4477 1.6859 -15.5746
27 3 2 -20.3385 -0.406364 -15.4792
21 3 3 -19.4225 0.0309133 -15.5282
25 3 2 -19.9408 1.24657 -17.2172
28 3 2 -17.6347 1.82638 -17.6427
19 3 1 -18.4027 2.19922 -15.8523
20 3 1 -19.6404 1.2602 -16.1161
22 3 3 -17.3157 1.8442 -16.6542
23 3 2 -18.7543 3.21625 -16.1213
24 3 2 -18.0892 2.17444 -14.7971
14 2 2 -16.8498 5.05444 -13.7099
37 4 2 1.95249 -14.2433 -11.7969
31 4 3 2.40812 -14.2577 -10.9081
35 4 2 4.19459 -13.4966 -11.7831
38 4 2 5.91682 -14.2435 -9.88182
32 4 3 5.13026 -14.1866 -9.29297
29 4 1 4.29959 -13.1215 -9.58572
30 4 1 3.45247 -13.2714 -10.9058
33 4 2 4.97105 -12.2091 -9.59445
34 4 2 3.65798 -12.9596 -8.67793
36 4 2 2.93126 -12.3347 -11.0937
16 2 2 -18.0888 4.63839 -11.5006
10 2 1 -16.8178 5.71332 -12.7257
11 2 1 -18.1129 5.61101 -11.9398
12 2 3 -18.0848 6.5202 -10.8942
15 2 2 -16.5997 6.76163 -12.9267
17 2 2 -18.9886 5.81975 -12.5517
18 2 2 -17.3506 6.27514 -10.327
13 2 2 -15.9674 5.27896 -12.0903
5 1 2 -22.0525 -7.23503 19.5132
1 1 1 -21.0875 -7.12717 20.1463
6 1 2 -21.2638 -6.36723 21.0091
4 1 2 -20.149 -6.8411 19.5076
8 1 2 -21.6979 -8.76998 21.4932
7 1 2 -20.5896 -9.28458 20.107
2 1 1 -20.809 -8.49921 20.9159
3 1 3 -19.7045 -8.45622 21.8139
9 1 2 -18.9838 -8.23952 21.2105
ITEM: TIMESTEP
4200
ITEM: NUMBER OF ATOMS
38
ITEM: BOX BOUNDS pp pp pp
-2.6905500000000000e+01 2.6905500000000000e+01
-2.6905500000000000e+01 2.6905500000000000e+01
-2.6905500000000000e+01 2.6905500000000000e+01
ITEM: ATOMS id mol type x y z
27 3 2 -20.2396 -0.429492 -15.3061
21 3 3 -19.3691 -0.0674972 -15.3703
26 3 2 -20.2826 1.73494 -14.8197
25 3 2 -20.2637 1.37467 -16.6505
28 3 2 -18.0879 1.67387 -17.5585
19 3 1 -18.34 2.06214 -15.7605
20 3 1 -19.6839 1.25096 -15.6635
22 3 3 -17.5137 1.62576 -16.7803
23 3 2 -18.6146 3.09412 -15.9925
24 3 2 -17.7755 1.98893 -14.7745
37 4 2 2.22089 -14.7974 -11.2857
31 4 3 2.82714 -14.7516 -10.5426
38 4 2 5.77537 -13.8767 -10.1441
32 4 3 5.29839 -14.224 -9.35383
34 4 2 3.76522 -13.6199 -8.23288
35 4 2 3.63241 -12.9209 -11.2462
29 4 1 4.23289 -13.3022 -9.1569
30 4 1 3.22048 -13.3569 -10.2841
33 4 2 4.6418 -12.3182 -9.01002
36 4 2 2.30108 -12.7373 -10.0802
14 2 2 -16.5891 4.33776 -13.1486
16 2 2 -18.0574 4.64443 -11.3376
10 2 1 -16.5834 5.32035 -12.6875
11 2 1 -17.9023 5.45752 -12.0258
12 2 3 -17.9568 6.69426 -11.2892
15 2 2 -16.5877 6.03533 -13.474
17 2 2 -18.7274 5.361 -12.729
13 2 2 -15.7165 5.49909 -11.9586
18 2 2 -17.3651 6.57773 -10.5339
5 1 2 -21.6684 -7.76478 19.1505
1 1 1 -21.0329 -7.31004 19.9196
4 1 2 -20.0496 -7.04587 19.4542
8 1 2 -21.7135 -8.88925 21.379
7 1 2 -20.2328 -9.23113 20.3615
2 1 1 -20.7693 -8.41845 20.909
3 1 3 -19.9066 -7.9891 21.9965
9 1 2 -19.0873 -7.78155 21.5224
6 1 2 -21.4542 -6.39728 20.4423
ITEM: TIMESTEP
4400
ITEM: NUMBER OF ATOMS
38
ITEM: BOX BOUNDS pp pp pp
-2.6905500000000000e+01 2.6905500000000000e+01
-2.6905500000000000e+01 2.6905500000000000e+01
-2.6905500000000000e+01 2.6905500000000000e+01
ITEM: ATOMS id mol type x y z
27 3 2 -20.4612 -0.381487 -15.1108
21 3 3 -19.5499 -0.0450007 -15.281
26 3 2 -20.3959 1.84314 -14.7049
25 3 2 -20.3799 1.4127 -16.4575
28 3 2 -18.3006 1.68578 -17.445
19 3 1 -18.5888 2.18276 -15.6933
20 3 1 -19.8213 1.37234 -15.5631
22 3 3 -17.7116 1.69581 -16.6394
23 3 2 -18.7459 3.36024 -15.8649
24 3 2 -18.1618 2.19844 -14.6904
37 4 2 1.93998 -14.197 -11.1433
31 4 3 2.7422 -14.4109 -10.5341
38 4 2 5.95776 -13.6053 -10.3642
32 4 3 5.5218 -13.9074 -9.46719
34 4 2 3.95079 -13.5618 -8.25203
35 4 2 3.9071 -12.8009 -11.2053
29 4 1 4.39375 -13.1529 -9.19689
30 4 1 3.29401 -13.1789 -10.2594
33 4 2 4.75247 -12.126 -8.96293
36 4 2 2.4859 -12.4258 -9.92414
14 2 2 -16.3978 4.82448 -13.5233
16 2 2 -17.6788 4.78947 -11.252
10 2 1 -16.7421 5.69629 -12.9813
11 2 1 -17.9303 5.51197 -12.0529
12 2 3 -18.3181 6.7589 -11.3909
15 2 2 -16.9951 6.51228 -13.6713
17 2 2 -18.8073 5.14971 -12.6446
13 2 2 -15.8498 5.9335 -12.3465
18 2 2 -17.4911 7.03809 -10.8381
5 1 2 -21.8157 -7.54646 19.2947
1 1 1 -20.9031 -7.18445 19.8581
4 1 2 -20.0081 -7.09194 19.1532
8 1 2 -21.6314 -8.22353 21.6148
7 1 2 -20.4171 -9.21369 20.6097
2 1 1 -20.7277 -8.15324 21.0251
3 1 3 -19.7794 -7.58274 21.9201
9 1 2 -18.8101 -7.45924 21.448
6 1 2 -21.1609 -6.19637 20.2372
ITEM: TIMESTEP
4600
ITEM: NUMBER OF ATOMS
38
ITEM: BOX BOUNDS pp pp pp
-2.6905500000000000e+01 2.6905500000000000e+01
-2.6905500000000000e+01 2.6905500000000000e+01
-2.6905500000000000e+01 2.6905500000000000e+01
ITEM: ATOMS id mol type x y z
27 3 2 -20.5552 -0.711792 -15.5519
21 3 3 -19.6852 -0.277612 -15.4707
26 3 2 -20.6414 1.35496 -14.9424
25 3 2 -20.3801 1.14662 -16.7655
28 3 2 -17.9652 1.73371 -17.437
19 3 1 -18.6737 1.84286 -15.5419
20 3 1 -19.9649 0.991514 -15.7583
22 3 3 -17.5683 1.64283 -16.5025
23 3 2 -19.0535 2.89898 -15.5692
24 3 2 -18.2304 1.61698 -14.5196
37 4 2 2.58569 -14.7292 -11.3273
31 4 3 3.17851 -14.5707 -10.5471
38 4 2 5.85125 -13.1162 -10.1522
32 4 3 5.54171 -13.5278 -9.35982
34 4 2 3.97109 -13.27 -8.25408
35 4 2 3.65397 -12.8351 -11.3856
29 4 1 4.27486 -12.9212 -9.26625
30 4 1 3.2823 -13.2187 -10.4204
33 4 2 4.40792 -11.7972 -9.18045
36 4 2 2.22061 -12.8447 -10.2885
14 2 2 -16.2586 4.92052 -13.0574
16 2 2 -17.5317 5.35098 -11.0246
10 2 1 -16.628 5.90957 -12.8843
11 2 1 -17.789 5.81795 -11.9516
12 2 3 -18.4098 7.03783 -11.8156
15 2 2 -17.0311 6.37047 -13.822
17 2 2 -18.4428 5.14233 -12.4316
13 2 2 -15.7868 6.49987 -12.5814
18 2 2 -17.9705 7.58322 -11.1584
5 1 2 -21.5321 -7.04726 18.8613
1 1 1 -20.9403 -6.92221 19.8069
4 1 2 -19.859 -6.85902 19.6258
8 1 2 -22.1432 -8.24441 21.0321
7 1 2 -20.7449 -9.06636 20.3405
2 1 1 -21.0748 -8.1065 20.8064
3 1 3 -20.3188 -7.8031 21.965
9 1 2 -19.4019 -7.62495 21.657
6 1 2 -21.2648 -6.02632 20.3644
ITEM: TIMESTEP
4800
ITEM: NUMBER OF ATOMS
38
ITEM: BOX BOUNDS pp pp pp
-2.6905500000000000e+01 2.6905500000000000e+01
-2.6905500000000000e+01 2.6905500000000000e+01
-2.6905500000000000e+01 2.6905500000000000e+01
ITEM: ATOMS id mol type x y z
27 3 2 -20.4773 -0.519262 -15.9486
21 3 3 -19.7484 -0.0979588 -15.5282
26 3 2 -20.5931 1.55506 -16.0648
25 3 2 -19.7393 0.81142 -17.2585
28 3 2 -17.3489 1.68437 -17.3176
19 3 1 -18.4948 1.9273 -15.7639
20 3 1 -19.699 1.022 -16.2275
22 3 3 -17.2737 1.41946 -16.2727
23 3 2 -18.7797 2.96908 -16.1872
24 3 2 -18.4169 1.91078 -14.6767
37 4 2 2.71303 -14.6413 -11.5937
31 4 3 3.15101 -14.6344 -10.6908
38 4 2 6.18365 -13.6156 -9.61059
32 4 3 5.42854 -13.9489 -9.07619
34 4 2 3.59023 -13.528 -8.32024
35 4 2 4.3759 -13.2224 -11.2557
29 4 1 4.28437 -13.2013 -9.1287
30 4 1 3.59631 -13.3823 -10.4716
33 4 2 4.53914 -12.1249 -8.95524
36 4 2 2.76936 -12.7291 -10.6383
14 2 2 -16.3466 4.58658 -12.9824
16 2 2 -17.7509 5.13628 -10.9538
10 2 1 -16.6544 5.62109 -12.7384
11 2 1 -17.9182 5.56231 -11.9983
12 2 3 -18.472 6.85563 -11.8415
15 2 2 -16.7616 6.20902 -13.6572
17 2 2 -18.7014 5.01832 -12.5642
13 2 2 -15.8742 6.05023 -12.0412
18 2 2 -17.9099 7.38351 -11.3414
5 1 2 -21.5444 -7.42843 18.8926
1 1 1 -20.9397 -7.12871 19.7606
4 1 2 -19.9072 -6.9107 19.4117
8 1 2 -21.9903 -8.34231 21.1126
7 1 2 -20.5482 -9.14184 20.5636
2 1 1 -20.947 -8.17853 20.858
3 1 3 -20.3846 -7.6662 22.0485
9 1 2 -19.3778 -7.40574 21.9343
6 1 2 -21.3569 -6.17763 20.274
ITEM: TIMESTEP
5000
ITEM: NUMBER OF ATOMS
38
ITEM: BOX BOUNDS pp pp pp
-2.6905500000000000e+01 2.6905500000000000e+01
-2.6905500000000000e+01 2.6905500000000000e+01
-2.6905500000000000e+01 2.6905500000000000e+01
ITEM: ATOMS id mol type x y z
27 3 2 -20.3967 -0.531031 -15.9263
21 3 3 -19.4894 -0.124594 -15.6942
26 3 2 -20.5092 1.65858 -15.5191
25 3 2 -19.8371 1.20742 -17.1036
28 3 2 -17.2325 1.09543 -17.2314
19 3 1 -18.262 1.93101 -15.7123
20 3 1 -19.6072 1.19916 -16.0629
22 3 3 -17.1503 1.22113 -16.2255
23 3 2 -18.1922 2.91908 -16.16
24 3 2 -18.1545 2.08533 -14.6
37 4 2 3.26396 -14.7086 -11.8265
31 4 3 3.43899 -14.7316 -10.8852
38 4 2 6.12703 -13.3239 -9.71359
32 4 3 5.47817 -13.7826 -9.05552
34 4 2 3.62493 -13.6529 -8.41411
35 4 2 4.21093 -12.8878 -11.3835
29 4 1 4.24188 -13.1271 -9.18142
30 4 1 3.58727 -13.3367 -10.5979
33 4 2 4.3507 -12.0225 -8.94697
36 4 2 2.65949 -12.9052 -10.7374
14 2 2 -16.6089 3.92737 -12.713
16 2 2 -18.7228 4.65668 -11.6929
10 2 1 -16.7102 4.9704 -12.4469
11 2 1 -18.2229 5.40459 -12.388
12 2 3 -18.5469 6.7547 -11.9982
15 2 2 -16.0964 5.57656 -13.2038
17 2 2 -18.6144 5.28861 -13.486
13 2 2 -16.2332 5.08874 -11.4555
18 2 2 -18.3387 6.89371 -10.975
5 1 2 -21.8452 -7.30515 18.7
1 1 1 -21.213 -7.00389 19.5886
4 1 2 -20.1585 -6.77294 19.2688
8 1 2 -22.3178 -8.37509 20.7554
7 1 2 -20.9323 -9.19184 19.9626
2 1 1 -21.2958 -8.22365 20.4971
3 1 3 -20.5687 -8.06554 21.7569
9 1 2 -19.6587 -7.8006 21.548
6 1 2 -21.6365 -6.08621 20.0141
ITEM: TIMESTEP
5200
ITEM: NUMBER OF ATOMS
38
ITEM: BOX BOUNDS pp pp pp
-2.6905500000000000e+01 2.6905500000000000e+01
-2.6905500000000000e+01 2.6905500000000000e+01
-2.6905500000000000e+01 2.6905500000000000e+01
ITEM: ATOMS id mol type x y z
27 3 2 -20.5889 -0.384373 -16.0212
21 3 3 -19.8423 0.0315982 -15.4739
26 3 2 -20.3422 1.97719 -15.5997
25 3 2 -19.7357 1.21991 -17.2279
28 3 2 -17.0728 1.06196 -17.049
19 3 1 -18.2342 1.79398 -15.6981
20 3 1 -19.6016 1.27788 -16.0647
22 3 3 -17.1281 1.04998 -16.0797
23 3 2 -18.0638 2.84647 -16.0286
24 3 2 -18.1681 1.82798 -14.6168
17 2 2 -18.4183 5.00142 -13.5977
37 4 2 2.86117 -14.72 -11.4404
31 4 3 3.2944 -14.71 -10.5007
32 4 3 5.49897 -13.6998 -9.03264
34 4 2 3.62729 -13.1546 -8.19111
38 4 2 5.96274 -13.3917 -9.79699
35 4 2 4.20241 -13.0235 -11.2667
29 4 1 4.24092 -12.9635 -9.08072
30 4 1 3.59984 -13.337 -10.4153
33 4 2 4.32064 -11.8596 -9.09285
36 4 2 2.65674 -12.6994 -10.4305
14 2 2 -16.6714 3.84692 -12.5778
16 2 2 -18.7507 4.49033 -11.9261
10 2 1 -16.7527 4.95094 -12.3018
11 2 1 -18.1947 5.23018 -12.5379
12 2 3 -18.5349 6.56955 -12.2858
15 2 2 -16.1246 5.62046 -12.9175
13 2 2 -16.5626 4.99781 -11.2082
18 2 2 -18.5345 6.72913 -11.3258
5 1 2 -22.4047 -7.14009 19.1385
1 1 1 -21.4239 -7.02038 19.6914
4 1 2 -20.552 -7.14418 19.0289
8 1 2 -22.2115 -8.08206 21.4688
7 1 2 -21.1713 -9.09868 20.3565
2 1 1 -21.3012 -8.1099 20.7996
3 1 3 -20.1811 -7.88706 21.672
9 1 2 -19.2965 -7.96318 21.2085
6 1 2 -21.4359 -5.96677 20.0928
ITEM: TIMESTEP
5400
ITEM: NUMBER OF ATOMS
38
ITEM: BOX BOUNDS pp pp pp
-2.6905500000000000e+01 2.6905500000000000e+01
-2.6905500000000000e+01 2.6905500000000000e+01
-2.6905500000000000e+01 2.6905500000000000e+01
ITEM: ATOMS id mol type x y z
27 3 2 -20.5403 -0.391124 -15.6406
21 3 3 -19.6678 0.0849335 -15.4592
26 3 2 -20.3769 1.96749 -15.3298
25 3 2 -19.766 1.64148 -17.0436
28 3 2 -17.3964 1.36309 -17.0558
19 3 1 -18.3392 2.01921 -15.4741
20 3 1 -19.6245 1.46197 -15.8999
22 3 3 -17.3078 1.22804 -16.0467
23 3 2 -18.3339 3.10838 -15.7825
24 3 2 -18.1885 2.13684 -14.3294
17 2 2 -18.662 5.00929 -13.7433
37 4 2 2.9616 -14.876 -11.1724
31 4 3 3.57998 -14.7763 -10.4393
32 4 3 5.79575 -13.4283 -8.86624
34 4 2 3.86562 -13.8109 -8.03984
38 4 2 6.33733 -12.7976 -9.50564
35 4 2 4.05069 -12.7946 -11.0465
29 4 1 4.39797 -13.144 -8.80093
30 4 1 3.65886 -13.3885 -10.1173
33 4 2 4.19092 -12.1166 -8.48104
36 4 2 2.62186 -13.0334 -9.90607
14 2 2 -16.9588 3.91592 -12.1478
16 2 2 -19.1856 5.23317 -12.0726
10 2 1 -16.9362 5.05001 -12.368
11 2 1 -18.3423 5.46804 -12.7811
12 2 3 -18.3027 6.8812 -13.0028
15 2 2 -16.276 5.26187 -13.2938
13 2 2 -16.5535 5.56221 -11.5028
18 2 2 -18.3534 7.32965 -12.0697
5 1 2 -22.264 -7.41882 19.5074
1 1 1 -21.4907 -6.92247 20.182
4 1 2 -20.6368 -6.53772 19.5628
8 1 2 -21.8353 -8.26049 21.8758
7 1 2 -20.6088 -8.89029 20.6777
2 1 1 -20.9884 -7.98171 21.2125
3 1 3 -19.9232 -7.50344 22.0428
9 1 2 -19.2058 -7.21676 21.3753
6 1 2 -21.9128 -6.07706 20.7428
ITEM: TIMESTEP
5600
ITEM: NUMBER OF ATOMS
38
ITEM: BOX BOUNDS pp pp pp
-2.6905500000000000e+01 2.6905500000000000e+01
-2.6905500000000000e+01 2.6905500000000000e+01
-2.6905500000000000e+01 2.6905500000000000e+01
ITEM: ATOMS id mol type x y z
27 3 2 -20.9727 -0.108751 -16.1126
21 3 3 -20.1395 0.16475 -15.6226
26 3 2 -20.6387 2.22428 -15.9097
25 3 2 -19.653 1.40623 -17.1672
28 3 2 -17.116 1.05271 -16.2639
19 3 1 -18.6382 2.05247 -15.3748
20 3 1 -19.8401 1.45372 -16.0822
22 3 3 -17.463 1.18804 -15.3134
23 3 2 -18.3373 3.06398 -15.8185
24 3 2 -18.9598 2.22265 -14.335
17 2 2 -18.4312 4.91823 -13.691
37 4 2 3.70532 -15.1623 -11.4764
31 4 3 4.28959 -14.8865 -10.7336
32 4 3 5.82356 -13.097 -8.87331
34 4 2 3.89844 -13.761 -8.41229
38 4 2 6.31515 -12.5005 -9.52684
35 4 2 4.38818 -12.8387 -11.2413
29 4 1 4.39255 -13.0511 -9.06642
30 4 1 4.00254 -13.5187 -10.5332
33 4 2 4.08606 -11.9843 -8.94527
36 4 2 2.90414 -13.3574 -10.4705
14 2 2 -16.4453 4.29422 -12.2138
16 2 2 -18.6271 5.4428 -12.0601
10 2 1 -16.5714 5.39555 -12.5699
11 2 1 -18.0305 5.65927 -12.9652
12 2 3 -18.2685 6.9531 -13.4298
15 2 2 -15.8748 5.52273 -13.4667
13 2 2 -16.2987 6.15533 -11.8215
18 2 2 -18.0554 7.70035 -12.7667
5 1 2 -22.8036 -7.50711 20.2071
1 1 1 -21.7782 -7.08173 20.4738
4 1 2 -21.3055 -6.90129 19.492
8 1 2 -21.7363 -8.2819 22.1367
7 1 2 -20.9415 -9.07609 20.9132
2 1 1 -21.0581 -8.06711 21.3127
3 1 3 -19.8221 -7.63239 21.8613
9 1 2 -19.2375 -7.25203 21.2092
6 1 2 -21.9266 -6.06961 20.9951
ITEM: TIMESTEP
5800
ITEM: NUMBER OF ATOMS
38
ITEM: BOX BOUNDS pp pp pp
-2.6905500000000000e+01 2.6905500000000000e+01
-2.6905500000000000e+01 2.6905500000000000e+01
-2.6905500000000000e+01 2.6905500000000000e+01
ITEM: ATOMS id mol type x y z
27 3 2 -21.1664 0.381288 -15.8705
21 3 3 -20.2883 0.594854 -15.5276
26 3 2 -20.4303 2.73517 -15.714
25 3 2 -19.6367 1.75482 -17.0807
28 3 2 -17.254 0.982026 -16.3318
19 3 1 -18.4555 2.12915 -15.2625
20 3 1 -19.7743 1.8146 -15.9894
22 3 3 -17.5445 1.09113 -15.3977
23 3 2 -17.9299 3.04363 -15.7985
24 3 2 -18.6208 2.27224 -14.2634
17 2 2 -18.1716 4.76399 -13.6868
37 4 2 4.71326 -14.9988 -11.9384
31 4 3 4.41224 -14.9753 -10.973
32 4 3 5.64871 -13.6779 -8.67017
34 4 2 3.63607 -14.0206 -8.53032
38 4 2 6.33937 -13.3249 -9.31833
35 4 2 4.81804 -12.9216 -11.1406
29 4 1 4.36164 -13.3685 -9.06948
30 4 1 4.12495 -13.621 -10.6098
33 4 2 4.12515 -12.3695 -8.84505
36 4 2 3.13976 -13.3654 -10.9411
14 2 2 -16.6184 4.50548 -11.8766
16 2 2 -19.1065 5.08511 -12.1868
10 2 1 -16.8859 5.48147 -12.2056
11 2 1 -18.2324 5.44512 -12.8491
12 2 3 -18.5224 6.75981 -13.4642
15 2 2 -16.1515 5.86811 -12.9226
13 2 2 -16.8747 6.13266 -11.3126
18 2 2 -18.5321 7.37566 -12.7037
5 1 2 -22.7634 -7.37548 20.5614
1 1 1 -21.6659 -7.06681 20.5545
4 1 2 -21.178 -7.41202 19.6283
8 1 2 -21.4708 -7.412 22.6164
7 1 2 -21.1469 -8.85634 21.5478
2 1 1 -21.0091 -7.7795 21.7158
3 1 3 -19.6196 -7.47449 21.8576
9 1 2 -19.1577 -7.80168 21.0055
6 1 2 -21.6306 -5.92268 20.5939
ITEM: TIMESTEP
6000
ITEM: NUMBER OF ATOMS
38
ITEM: BOX BOUNDS pp pp pp
-2.6905500000000000e+01 2.6905500000000000e+01
-2.6905500000000000e+01 2.6905500000000000e+01
-2.6905500000000000e+01 2.6905500000000000e+01
ITEM: ATOMS id mol type x y z
27 3 2 -21.2727 0.249818 -15.8853
21 3 3 -20.4222 0.565266 -15.408
26 3 2 -20.7288 2.45549 -15.9484
25 3 2 -19.7895 1.53125 -17.1476
28 3 2 -17.4037 0.879491 -16.4027
19 3 1 -18.6469 2.12159 -15.4027
20 3 1 -19.9503 1.70649 -16.0665
22 3 3 -17.6265 1.07468 -15.4711
23 3 2 -18.3349 3.05532 -15.8695
24 3 2 -18.8809 2.37715 -14.2844
17 2 2 -18.4128 4.71462 -13.5784
37 4 2 4.79489 -15.3214 -11.9148
31 4 3 4.85155 -14.9935 -10.9536
32 4 3 5.40696 -13.3017 -9.08909
34 4 2 3.56208 -14.2002 -8.67945
38 4 2 5.76808 -12.4528 -9.53356
35 4 2 4.2318 -13.1147 -11.5423
29 4 1 4.10097 -13.4518 -9.34119
30 4 1 3.98103 -13.962 -10.7916
33 4 2 3.46479 -12.5521 -9.26866
36 4 2 2.91401 -14.2974 -10.9749
14 2 2 -16.5745 4.826 -11.6982
16 2 2 -18.9609 5.56105 -12.1098
10 2 1 -16.8786 5.64732 -12.3689
11 2 1 -18.269 5.54848 -12.9845
12 2 3 -18.5392 6.69076 -13.777
15 2 2 -16.1676 5.70149 -13.2792
13 2 2 -16.6858 6.64862 -11.792
18 2 2 -18.4957 7.49602 -13.2253
5 1 2 -21.8098 -7.54712 20.2454
1 1 1 -20.8169 -7.26368 20.5724
4 1 2 -20.0042 -7.44345 19.8946
8 1 2 -21.3202 -7.46926 22.6577
7 1 2 -20.7137 -8.94186 21.9538
2 1 1 -20.5764 -7.83576 21.9863
3 1 3 -19.3058 -7.45537 22.3859
9 1 2 -18.6002 -7.73989 21.7133
6 1 2 -20.8398 -6.13585 20.7332
ITEM: TIMESTEP
6200
ITEM: NUMBER OF ATOMS
38
ITEM: BOX BOUNDS pp pp pp
-2.6905500000000000e+01 2.6905500000000000e+01
-2.6905500000000000e+01 2.6905500000000000e+01
-2.6905500000000000e+01 2.6905500000000000e+01
ITEM: ATOMS id mol type x y z
27 3 2 -20.9803 -0.0259747 -15.3681
21 3 3 -20.2468 0.45698 -14.9646
26 3 2 -20.698 2.20445 -15.9217
25 3 2 -19.6323 0.994931 -16.807
28 3 2 -17.1724 1.11505 -16.0069
19 3 1 -18.6405 2.20843 -15.3208
20 3 1 -19.8784 1.4873 -15.8321
22 3 3 -17.5066 1.35218 -15.1994
23 3 2 -18.403 2.98648 -16.0138
24 3 2 -18.931 2.64722 -14.3594
17 2 2 -18.5616 4.7702 -13.5781
12 2 3 -18.7252 6.7334 -13.8677
37 4 2 4.91665 -15.341 -11.9668
31 4 3 5.0524 -15.083 -11.0743
34 4 2 4.41145 -14.133 -8.70574
29 4 1 4.42386 -13.3588 -9.48179
30 4 1 4.15349 -14.0245 -10.8958
36 4 2 3.0873 -14.4052 -10.8769
32 4 3 5.62143 -12.7232 -9.28006
38 4 2 5.71097 -12.0262 -10.0094
35 4 2 4.13243 -13.2178 -11.6339
33 4 2 3.58987 -12.6375 -9.31518
14 2 2 -16.6282 5.07957 -11.8296
16 2 2 -19.0117 5.72507 -12.0486
10 2 1 -16.9089 5.83142 -12.5592
11 2 1 -18.3548 5.72349 -12.9807
15 2 2 -16.2192 5.73798 -13.3823
13 2 2 -16.8119 6.84494 -12.1406
18 2 2 -18.6584 7.57866 -13.3378
4 1 2 -19.873 -7.87203 20.0591
5 1 2 -21.522 -8.39352 20.0472
1 1 1 -20.81 -7.77472 20.5767
8 1 2 -21.5469 -8.06651 22.5521
7 1 2 -20.4099 -9.32629 22.1378
2 1 1 -20.6036 -8.25816 22.0306
3 1 3 -19.6568 -7.37265 22.6132
9 1 2 -18.8457 -7.60099 22.1123
6 1 2 -21.1704 -6.64354 20.5099
ITEM: TIMESTEP
6400
ITEM: NUMBER OF ATOMS
38
ITEM: BOX BOUNDS pp pp pp
-2.6905500000000000e+01 2.6905500000000000e+01
-2.6905500000000000e+01 2.6905500000000000e+01
-2.6905500000000000e+01 2.6905500000000000e+01
ITEM: ATOMS id mol type x y z
27 3 2 -20.8969 -0.567451 -15.0933
21 3 3 -20.0698 -0.105712 -14.8674
26 3 2 -21.0736 1.59606 -15.5129
25 3 2 -20.091 0.749563 -16.7217
28 3 2 -17.5658 1.25994 -16.5401
19 3 1 -18.9384 2.08514 -15.3677
20 3 1 -20.0867 1.07784 -15.6748
22 3 3 -17.6616 1.45185 -15.5694
23 3 2 -19.0554 2.96706 -16.06
24 3 2 -18.9239 2.44622 -14.3454
17 2 2 -18.7305 4.58979 -14.0394
12 2 3 -18.6413 6.64412 -13.9644
37 4 2 4.65069 -15.9676 -11.7665
31 4 3 4.76659 -15.477 -10.9143
34 4 2 3.88709 -14.0426 -8.83917
29 4 1 4.16295 -13.4003 -9.69456
30 4 1 4.09096 -14.1988 -10.9686
36 4 2 2.9923 -14.4907 -11.1341
32 4 3 5.47781 -13.0621 -9.42483
38 4 2 5.77447 -12.5607 -10.2758
35 4 2 4.39913 -13.5712 -11.8647
33 4 2 3.46361 -12.4749 -9.73291
14 2 2 -17.1384 4.30927 -12.0411
16 2 2 -19.3475 5.21785 -12.459
10 2 1 -17.2305 5.27328 -12.5996
11 2 1 -18.5388 5.39204 -13.278
15 2 2 -16.3331 5.29152 -13.2752
13 2 2 -17.1467 6.07915 -11.8203
18 2 2 -18.5937 7.30896 -13.1805
4 1 2 -20.0565 -7.18482 19.8762
5 1 2 -21.1609 -8.63998 19.7813
1 1 1 -20.8192 -7.77988 20.4382
8 1 2 -20.8851 -9.03523 22.1898
7 1 2 -19.1885 -8.81971 21.4792
2 1 1 -20.148 -8.31263 21.6877
3 1 3 -19.8153 -7.23013 22.5832
9 1 2 -19.0622 -6.71723 22.1068
6 1 2 -21.8232 -7.26249 20.7277
ITEM: TIMESTEP
6600
ITEM: NUMBER OF ATOMS
38
ITEM: BOX BOUNDS pp pp pp
-2.6905500000000000e+01 2.6905500000000000e+01
-2.6905500000000000e+01 2.6905500000000000e+01
-2.6905500000000000e+01 2.6905500000000000e+01
ITEM: ATOMS id mol type x y z
27 3 2 -20.1687 -1.22847 -15.5817
21 3 3 -19.872 -0.533255 -14.9391
26 3 2 -21.1474 0.831726 -15.8439
25 3 2 -19.6193 0.35959 -16.8185
28 3 2 -17.5473 1.09225 -16.155
19 3 1 -19.1191 1.79194 -15.186
20 3 1 -20.0151 0.626089 -15.7686
22 3 3 -17.7458 1.44305 -15.2628
23 3 2 -19.3683 2.65031 -15.8897
24 3 2 -19.3386 1.98832 -14.173
17 2 2 -18.9707 4.44707 -14.4452
12 2 3 -18.7645 6.44328 -14.2678
37 4 2 4.99784 -15.815 -11.7825
31 4 3 4.85578 -15.3918 -10.9478
34 4 2 3.3806 -14.1473 -9.13606
29 4 1 3.85085 -13.4668 -9.91232
30 4 1 4.06299 -14.2935 -11.2007
36 4 2 3.00492 -14.605 -11.5212
32 4 3 5.04099 -13.0994 -9.25681
38 4 2 5.40858 -12.4019 -9.91111
35 4 2 4.44171 -13.6065 -11.9864
33 4 2 3.07137 -12.6658 -10.0739
14 2 2 -17.4833 3.84357 -12.5334
16 2 2 -19.6124 5.14716 -12.9528
10 2 1 -17.4456 4.84418 -12.921
11 2 1 -18.7502 5.20266 -13.6767
15 2 2 -16.5775 4.9344 -13.5502
13 2 2 -17.3092 5.56441 -12.1186
18 2 2 -18.5571 7.20655 -13.6107
4 1 2 -20.4555 -7.65101 19.8439
5 1 2 -20.8747 -9.49971 19.992
1 1 1 -20.8466 -8.46951 20.5263
8 1 2 -20.2984 -9.15559 22.4214
7 1 2 -18.9913 -8.68272 21.3694
2 1 1 -19.9371 -8.41235 21.7178
3 1 3 -19.9385 -7.18901 22.3951
9 1 2 -19.5678 -6.57284 21.821
6 1 2 -21.8832 -8.13289 20.8217
ITEM: TIMESTEP
6800
ITEM: NUMBER OF ATOMS
38
ITEM: BOX BOUNDS pp pp pp
-2.6905500000000000e+01 2.6905500000000000e+01
-2.6905500000000000e+01 2.6905500000000000e+01
-2.6905500000000000e+01 2.6905500000000000e+01
ITEM: ATOMS id mol type x y z
27 3 2 -20.4903 -0.821474 -15.1994
21 3 3 -19.8116 -0.271988 -14.8024
26 3 2 -20.9152 1.33238 -15.1845
25 3 2 -19.7188 0.888786 -16.5966
28 3 2 -17.5768 1.72884 -16.0606
19 3 1 -19.0415 1.98045 -14.8193
20 3 1 -19.9114 0.969372 -15.4641
22 3 3 -17.6357 1.71426 -15.0108
23 3 2 -19.2695 2.96596 -15.3839
24 3 2 -19.3435 2.00669 -13.7489
17 2 2 -19.4861 4.77002 -14.4935
12 2 3 -18.3867 6.46002 -14.7004
37 4 2 5.20974 -16.064 -11.9785
31 4 3 4.84577 -15.5624 -11.1678
34 4 2 3.3091 -13.6795 -10.017
29 4 1 4.35937 -13.3718 -10.3061
30 4 1 4.88179 -14.2476 -11.5068
36 4 2 4.11563 -14.0056 -12.3699
32 4 3 5.19539 -13.46 -9.16678
38 4 2 6.11266 -13.2311 -9.45799
35 4 2 5.83679 -13.8694 -11.8581
33 4 2 4.32226 -12.3389 -10.6302
14 2 2 -18.2298 4.05948 -12.432
16 2 2 -19.717 6.07457 -13.1986
10 2 1 -17.7977 4.83959 -13.1467
11 2 1 -18.9664 5.52444 -13.8917
15 2 2 -17.1175 4.27018 -13.7944
13 2 2 -17.2851 5.71747 -12.7103
18 2 2 -18.1153 7.18989 -14.1
4 1 2 -20.568 -8.04821 19.7251
5 1 2 -21.3453 -9.67714 20.0477
1 1 1 -21.0941 -8.67299 20.4911
8 1 2 -20.7235 -9.42013 22.542
7 1 2 -19.3293 -9.39702 21.4007
2 1 1 -20.214 -8.86633 21.7382
3 1 3 -19.949 -7.57028 22.3026
9 1 2 -19.3966 -7.08099 21.6603
6 1 2 -22.0242 -8.16573 20.6666
ITEM: TIMESTEP
7000
ITEM: NUMBER OF ATOMS
38
ITEM: BOX BOUNDS pp pp pp
-2.6905500000000000e+01 2.6905500000000000e+01
-2.6905500000000000e+01 2.6905500000000000e+01
-2.6905500000000000e+01 2.6905500000000000e+01
ITEM: ATOMS id mol type x y z
27 3 2 -20.3391 -0.905427 -15.4429
21 3 3 -19.6545 -0.326852 -14.9806
26 3 2 -20.7894 1.20922 -15.8588
25 3 2 -19.3135 0.753707 -16.6255
28 3 2 -17.4157 1.62912 -15.3979
19 3 1 -19.2548 1.98587 -14.8336
20 3 1 -19.7785 0.879823 -15.6292
22 3 3 -17.9167 1.77488 -14.5503
23 3 2 -19.3583 2.89025 -15.3701
24 3 2 -19.7265 2.13411 -13.8074
17 2 2 -19.3809 5.08752 -13.9266
12 2 3 -18.204 6.8226 -14.2068
37 4 2 5.15931 -16.0603 -12.1453
31 4 3 5.15775 -15.5386 -11.3177
34 4 2 3.57981 -14.3279 -9.53213
29 4 1 4.31394 -13.7 -10.1359
30 4 1 4.51776 -14.3102 -11.5307
36 4 2 3.53446 -14.4065 -11.9897
32 4 3 5.51672 -13.6166 -9.39816
38 4 2 6.16141 -12.995 -9.83359
35 4 2 5.20918 -13.729 -12.1694
33 4 2 3.88618 -12.6517 -10.1966
14 2 2 -17.9413 4.02841 -12.3517
16 2 2 -19.0865 6.28205 -12.5207
10 2 1 -17.4536 4.8083 -12.9747
11 2 1 -18.6144 5.7281 -13.3836
15 2 2 -17.0753 4.24264 -13.9098
13 2 2 -16.6323 5.33709 -12.4833
18 2 2 -17.4749 7.34109 -13.6678
4 1 2 -20.3422 -7.64361 19.7418
5 1 2 -21.1005 -9.37578 19.565
1 1 1 -21.0151 -8.4474 20.184
8 1 2 -21.4513 -9.48741 21.9977
7 1 2 -19.6738 -9.31174 21.6069
2 1 1 -20.6405 -8.78387 21.6076
3 1 3 -20.6693 -7.74523 22.428
9 1 2 -20.0049 -7.0284 22.106
6 1 2 -22.0324 -7.99064 20.2988
ITEM: TIMESTEP
7200
ITEM: NUMBER OF ATOMS
38
ITEM: BOX BOUNDS pp pp pp
-2.6905500000000000e+01 2.6905500000000000e+01
-2.6905500000000000e+01 2.6905500000000000e+01
-2.6905500000000000e+01 2.6905500000000000e+01
ITEM: ATOMS id mol type x y z
27 3 2 -20.3958 -1.02189 -15.7409
21 3 3 -20.0422 -0.300412 -15.1648
26 3 2 -21.1134 1.07568 -16.2832
25 3 2 -19.3825 0.980567 -16.7321
28 3 2 -17.8986 1.76318 -15.2233
19 3 1 -19.7477 1.9823 -14.925
20 3 1 -20.1358 0.872707 -15.9115
22 3 3 -18.4375 1.86554 -14.4407
23 3 2 -19.8125 3.04084 -15.3515
24 3 2 -20.4098 1.83302 -14.0352
17 2 2 -19.1156 4.91408 -14.0259
12 2 3 -18.1519 6.60159 -14.7191
15 2 2 -16.5471 4.49979 -14.0579
18 2 2 -17.691 7.40511 -14.3758
37 4 2 4.99255 -16.0049 -11.8896
31 4 3 4.61569 -15.6645 -11.0261
34 4 2 3.10647 -14.1024 -9.52512
29 4 1 3.87021 -13.6072 -10.0898
30 4 1 4.23281 -14.4248 -11.359
36 4 2 3.40679 -14.4093 -12.1092
32 4 3 5.03756 -13.3316 -9.3809
35 4 2 5.10606 -13.8549 -11.8235
38 4 2 5.45185 -12.6228 -9.96869
33 4 2 3.4709 -12.6605 -10.4216
14 2 2 -17.2362 4.31253 -12.3431
16 2 2 -18.8336 6.0819 -12.7734
10 2 1 -17.0682 5.02135 -13.2115
11 2 1 -18.3772 5.64767 -13.6924
13 2 2 -16.421 5.8984 -12.8389
4 1 2 -20.064 -7.10219 19.9632
5 1 2 -21.2175 -8.26794 19.3751
1 1 1 -20.9577 -7.62499 20.2696
6 1 2 -21.8411 -6.97479 20.4209
8 1 2 -21.6214 -8.98269 21.862
2 1 1 -20.6913 -8.533 21.5481
3 1 3 -20.2447 -7.67242 22.6147
7 1 2 -19.9264 -9.31645 21.2996
9 1 2 -19.4275 -7.22629 22.3327
ITEM: TIMESTEP
7400
ITEM: NUMBER OF ATOMS
38
ITEM: BOX BOUNDS pp pp pp
-2.6905500000000000e+01 2.6905500000000000e+01
-2.6905500000000000e+01 2.6905500000000000e+01
-2.6905500000000000e+01 2.6905500000000000e+01
ITEM: ATOMS id mol type x y z
27 3 2 -20.2624 -1.05689 -15.7338
21 3 3 -19.9997 -0.26609 -15.146
26 3 2 -21.1253 0.980019 -16.2443
25 3 2 -19.326 0.788971 -16.6889
28 3 2 -17.9248 2.08779 -14.865
19 3 1 -19.8731 2.07871 -14.903
20 3 1 -20.0428 0.878838 -15.8553
22 3 3 -18.644 1.99387 -14.1517
23 3 2 -19.9517 3.03276 -15.3825
24 3 2 -20.7145 2.03389 -14.1329
17 2 2 -18.3963 4.58289 -14.4369
12 2 3 -18.5466 6.5763 -14.7323
15 2 2 -16.043 5.48793 -14.2245
18 2 2 -18.3989 7.39791 -14.1896
37 4 2 5.079 -16.1129 -11.6293
31 4 3 4.74853 -15.5019 -10.9173
34 4 2 3.04062 -13.8356 -9.72109
29 4 1 3.78587 -13.3352 -10.4127
30 4 1 4.24936 -14.3125 -11.4851
36 4 2 3.41157 -14.5653 -12.1521
32 4 3 4.80681 -12.8755 -9.5201
35 4 2 5.02833 -13.7707 -12.0818
38 4 2 5.48484 -12.4885 -10.0418
33 4 2 3.35915 -12.4852 -10.9412
14 2 2 -16.5982 4.63808 -12.7737
16 2 2 -18.8955 5.51259 -13.061
10 2 1 -16.7831 5.50296 -13.3882
11 2 1 -18.2298 5.53862 -13.9017
13 2 2 -16.6322 6.45117 -12.8215
4 1 2 -20.0678 -6.9731 20.1404
5 1 2 -21.421 -8.02845 19.5536
1 1 1 -21.0572 -7.48445 20.4407
6 1 2 -21.816 -6.74052 20.8225
8 1 2 -21.5647 -8.8657 21.9616
2 1 1 -20.6657 -8.35757 21.6174
3 1 3 -20.075 -7.58452 22.638
7 1 2 -19.9769 -9.14825 21.2315
9 1 2 -19.278 -7.26454 22.2884
ITEM: TIMESTEP
7600
ITEM: NUMBER OF ATOMS
38
ITEM: BOX BOUNDS pp pp pp
-2.6905500000000000e+01 2.6905500000000000e+01
-2.6905500000000000e+01 2.6905500000000000e+01
-2.6905500000000000e+01 2.6905500000000000e+01
ITEM: ATOMS id mol type x y z
27 3 2 -20.1189 -0.637602 -16.6017
21 3 3 -19.9475 -0.0898181 -15.7747
26 3 2 -20.626 1.58967 -16.7557
25 3 2 -18.848 1.38642 -16.7101
28 3 2 -17.8485 1.91945 -14.6495
19 3 1 -19.744 2.10291 -14.8288
20 3 1 -19.7735 1.22717 -16.128
22 3 3 -18.6261 1.81881 -14.0073
23 3 2 -19.7636 3.19716 -15.1287
24 3 2 -20.6359 2.0695 -14.1997
17 2 2 -18.4236 4.90384 -14.3363
12 2 3 -18.6972 6.77735 -14.9767
15 2 2 -16.1548 5.76532 -14.7231
18 2 2 -18.5582 7.70769 -14.7164
37 4 2 4.81169 -16.3519 -11.3801
31 4 3 4.72455 -15.6148 -10.7084
34 4 2 3.10359 -13.455 -10.0115
29 4 1 4.01485 -13.2086 -10.5888
30 4 1 4.33675 -14.4669 -11.4572
36 4 2 3.47105 -14.8376 -12.1135
32 4 3 5.04951 -12.9053 -9.66036
35 4 2 5.12142 -14.2555 -12.1559
38 4 2 5.98291 -12.9428 -10.0847
33 4 2 3.79753 -12.3034 -11.2213
14 2 2 -16.4509 5.32937 -12.9245
16 2 2 -18.7694 6.05591 -12.9649
10 2 1 -16.7055 5.97111 -13.7432
11 2 1 -18.1885 5.88937 -13.9452
13 2 2 -16.4741 7.02993 -13.6292
4 1 2 -19.9499 -6.7089 20.0478
5 1 2 -21.2597 -7.89619 19.3668
1 1 1 -20.89 -7.25867 20.218
6 1 2 -21.6679 -6.54366 20.5467
8 1 2 -21.5313 -8.78517 21.562
2 1 1 -20.5828 -8.25616 21.3415
3 1 3 -20.1972 -7.6157 22.5456
7 1 2 -19.723 -8.97056 21.0486
9 1 2 -19.3634 -7.08728 22.2254
ITEM: TIMESTEP
7800
ITEM: NUMBER OF ATOMS
38
ITEM: BOX BOUNDS pp pp pp
-2.6905500000000000e+01 2.6905500000000000e+01
-2.6905500000000000e+01 2.6905500000000000e+01
-2.6905500000000000e+01 2.6905500000000000e+01
ITEM: ATOMS id mol type x y z
27 3 2 -19.9726 -0.291325 -16.5231
21 3 3 -19.688 0.0574013 -15.6344
26 3 2 -21.0995 1.49288 -15.8474
25 3 2 -19.3753 1.87106 -16.4922
28 3 2 -17.6979 2.44525 -14.8363
19 3 1 -19.5515 2.11585 -14.3599
20 3 1 -19.9855 1.41991 -15.6903
22 3 3 -18.1454 1.9177 -14.148
23 3 2 -19.8307 3.17742 -14.3937
24 3 2 -20.139 1.55033 -13.5695
17 2 2 -18.8022 5.21921 -13.7905
12 2 3 -18.7608 7.10973 -14.2669
15 2 2 -16.7715 5.33241 -15.3915
18 2 2 -18.1523 7.88523 -14.0233
37 4 2 4.54195 -16.4139 -10.7621
31 4 3 4.34375 -15.5857 -10.2755
34 4 2 3.31515 -13.0202 -10.2078
29 4 1 4.27405 -13.1085 -10.636
30 4 1 4.37294 -14.518 -11.1849
36 4 2 3.52772 -14.6635 -11.8861
32 4 3 5.31691 -12.8577 -9.70083
35 4 2 5.27784 -14.4791 -11.7953
38 4 2 6.06619 -12.8533 -10.2284
33 4 2 4.26855 -12.3384 -11.435
14 2 2 -16.2251 5.06524 -13.7519
16 2 2 -17.9744 6.30874 -12.6647
10 2 1 -16.7908 5.73028 -14.3348
11 2 1 -18.1165 6.0721 -13.7113
13 2 2 -16.1451 6.61231 -14.4021
4 1 2 -20.0811 -6.64613 20.2536
5 1 2 -20.1551 -8.19128 19.3773
1 1 1 -20.4972 -7.65393 20.3317
6 1 2 -21.5593 -7.60957 20.3404
8 1 2 -20.3623 -9.36071 21.4412
2 1 1 -19.9415 -8.4141 21.4971
3 1 3 -20.3608 -7.82066 22.6797
7 1 2 -18.8322 -8.51662 21.4088
9 1 2 -19.9434 -6.94098 22.8166
ITEM: TIMESTEP
8000
ITEM: NUMBER OF ATOMS
38
ITEM: BOX BOUNDS pp pp pp
-2.6905500000000000e+01 2.6905500000000000e+01
-2.6905500000000000e+01 2.6905500000000000e+01
-2.6905500000000000e+01 2.6905500000000000e+01
ITEM: ATOMS id mol type x y z
27 3 2 -20.4566 0.260317 -16.4396
21 3 3 -20.0327 0.384135 -15.5876
26 3 2 -21.2386 1.90161 -14.9268
25 3 2 -20.0049 2.39703 -16.1629
28 3 2 -17.7713 2.76054 -15.0756
19 3 1 -19.2816 2.09429 -14.093
20 3 1 -20.191 1.74159 -15.2569
22 3 3 -17.9446 1.99666 -14.4528
23 3 2 -19.5195 3.16729 -13.6757
24 3 2 -19.4641 1.35094 -13.2963
17 2 2 -18.956 5.55758 -13.6494
12 2 3 -18.699 7.32141 -14.5958
15 2 2 -16.9618 5.3346 -15.1378
18 2 2 -18.1736 8.1198 -14.6227
37 4 2 4.82513 -16.2523 -10.9125
31 4 3 4.59491 -15.5601 -10.2249
34 4 2 3.39712 -13.4394 -9.43473
29 4 1 4.15863 -13.1437 -10.2359
30 4 1 4.32336 -14.4621 -11.0705
36 4 2 3.38775 -14.602 -11.7104
32 4 3 5.39539 -12.8871 -9.52297
35 4 2 5.19385 -14.2637 -11.7627
38 4 2 5.98053 -12.4067 -10.1416
33 4 2 3.78026 -12.3137 -10.8394
14 2 2 -16.3616 5.10152 -13.4517
16 2 2 -18.0828 6.83384 -12.6936
10 2 1 -16.8062 5.86333 -14.1645
11 2 1 -18.2022 6.37252 -13.6749
13 2 2 -16.0431 6.67126 -14.27
4 1 2 -19.6411 -6.27603 20.586
5 1 2 -20.0375 -7.336 19.2586
1 1 1 -20.271 -7.0786 20.3607
6 1 2 -21.3159 -6.69354 20.3628
8 1 2 -20.7061 -9.12279 21.0046
2 1 1 -20.0454 -8.30611 21.3115
3 1 3 -20.2146 -7.95115 22.6647
7 1 2 -18.9331 -8.68398 21.2184
9 1 2 -19.6862 -7.12148 22.7688
ITEM: TIMESTEP
8200
ITEM: NUMBER OF ATOMS
38
ITEM: BOX BOUNDS pp pp pp
-2.6905500000000000e+01 2.6905500000000000e+01
-2.6905500000000000e+01 2.6905500000000000e+01
-2.6905500000000000e+01 2.6905500000000000e+01
ITEM: ATOMS id mol type x y z
27 3 2 -20.7474 0.108028 -16.0729
26 3 2 -21.5664 2.00206 -14.9258
20 3 1 -20.4936 1.88621 -15.23
21 3 3 -20.1213 0.499338 -15.3953
25 3 2 -20.2717 2.43147 -16.1786
28 3 2 -18.0962 2.95551 -15.2039
19 3 1 -19.6708 2.50523 -14.0638
22 3 3 -18.2488 2.52638 -14.3573
23 3 2 -20.0445 3.54364 -13.844
17 2 2 -19.0282 5.92573 -13.8074
15 2 2 -17.0207 5.14329 -14.9076
10 2 1 -16.8944 5.89866 -14.1023
11 2 1 -18.2268 6.61619 -13.9183
13 2 2 -16.046 6.59663 -14.2028
12 2 3 -18.6167 7.30873 -14.9819
18 2 2 -17.9592 7.97212 -15.178
37 4 2 4.55894 -16.6285 -11.1403
31 4 3 4.51453 -15.8675 -10.4754
30 4 1 4.40209 -14.6817 -11.2356
36 4 2 3.44589 -14.6647 -11.7466
35 4 2 5.12785 -14.6152 -11.9939
34 4 2 3.66923 -13.4673 -9.59041
29 4 1 4.46907 -13.448 -10.3781
32 4 3 5.75726 -13.2794 -9.75467
38 4 2 6.34468 -13.131 -10.5088
33 4 2 4.36862 -12.5169 -10.9662
24 3 2 -19.8085 1.98891 -13.0486
14 2 2 -16.6586 5.31977 -13.1745
16 2 2 -18.2866 7.2784 -13.0484
5 1 2 -20.3004 -7.32157 19.224
1 1 1 -20.2916 -6.99073 20.2393
6 1 2 -21.1696 -6.37241 20.3485
8 1 2 -21.1235 -8.82967 20.8755
3 1 3 -20.2587 -7.73223 22.4563
2 1 1 -20.2315 -8.23413 21.1813
7 1 2 -19.3139 -8.87727 20.9817
9 1 2 -19.3357 -7.38505 22.5698
4 1 2 -19.5324 -6.17254 20.3483
ITEM: TIMESTEP
8400
ITEM: NUMBER OF ATOMS
38
ITEM: BOX BOUNDS pp pp pp
-2.6905500000000000e+01 2.6905500000000000e+01
-2.6905500000000000e+01 2.6905500000000000e+01
-2.6905500000000000e+01 2.6905500000000000e+01
ITEM: ATOMS id mol type x y z
27 3 2 -20.1235 0.0937952 -16.3336
26 3 2 -21.5079 1.54794 -15.5083
20 3 1 -20.4912 1.79325 -15.5008
21 3 3 -19.8856 0.522425 -15.4993
25 3 2 -20.2334 2.32689 -16.3355
28 3 2 -18.4618 3.38261 -14.869
19 3 1 -20.0663 2.55012 -14.2472
22 3 3 -18.671 2.75235 -14.1041
23 3 2 -20.6753 3.47914 -14.2583
17 2 2 -18.6744 6.04941 -13.4815
15 2 2 -16.5436 5.64235 -14.7428
10 2 1 -16.7058 6.46054 -13.9711
11 2 1 -18.1022 6.91527 -13.9575
13 2 2 -16.0007 7.33629 -14.2268
12 2 3 -18.6261 7.20712 -15.2342
18 2 2 -18.2765 8.13634 -15.4563
37 4 2 4.8463 -16.527 -10.9732
31 4 3 4.77843 -15.7256 -10.4019
30 4 1 4.8715 -14.7008 -11.2642
36 4 2 4.14053 -14.743 -12.0622
35 4 2 5.91141 -14.7816 -11.8569
34 4 2 3.83464 -13.2016 -10.2099
29 4 1 4.83399 -13.3478 -10.4968
32 4 3 5.72894 -13.2392 -9.40485
38 4 2 6.69118 -13.4582 -9.65407
33 4 2 5.13929 -12.5147 -11.1578
24 3 2 -20.359 2.08389 -13.3721
14 2 2 -16.4426 6.07247 -12.9988
16 2 2 -18.1756 7.72936 -13.1981
5 1 2 -20.2529 -6.9034 19.0461
1 1 1 -20.09 -6.86208 20.0925
6 1 2 -20.764 -6.08679 20.4022
8 1 2 -21.5158 -8.41868 20.5765
3 1 3 -20.278 -8.00598 22.2013
2 1 1 -20.438 -8.18508 20.861
7 1 2 -19.7689 -9.01824 20.5091
9 1 2 -19.3072 -7.81579 22.3868
4 1 2 -19.0377 -6.5881 20.3539
ITEM: TIMESTEP
8600
ITEM: NUMBER OF ATOMS
38
ITEM: BOX BOUNDS pp pp pp
-2.6905500000000000e+01 2.6905500000000000e+01
-2.6905500000000000e+01 2.6905500000000000e+01
-2.6905500000000000e+01 2.6905500000000000e+01
ITEM: ATOMS id mol type x y z
27 3 2 -20.6984 0.0373183 -16.3703
26 3 2 -21.6716 0.946703 -14.6837
20 3 1 -20.7483 1.48754 -15.1157
21 3 3 -19.9888 0.584062 -15.9074
25 3 2 -21.1872 2.2064 -15.8815
28 3 2 -19.0905 3.39525 -15.234
19 3 1 -19.9177 2.15155 -14.0053
22 3 3 -18.7822 2.72253 -14.581
23 3 2 -20.5807 2.86492 -13.4223
17 2 2 -18.6563 6.07558 -13.7391
15 2 2 -16.5219 5.85178 -15.1667
10 2 1 -16.494 6.41197 -14.1941
11 2 1 -17.9507 6.89987 -13.9578
13 2 2 -15.8051 7.28814 -14.393
12 2 3 -18.4988 7.49201 -15.1008
18 2 2 -17.9868 8.30396 -15.2009
37 4 2 5.24421 -16.5908 -11.0679
31 4 3 5.0662 -15.8337 -10.4274
30 4 1 5.37116 -14.7198 -11.2117
36 4 2 4.83246 -14.7203 -12.1605
35 4 2 6.50382 -14.7328 -11.383
34 4 2 3.83742 -13.3651 -10.3966
29 4 1 4.97987 -13.4281 -10.48
32 4 3 5.52432 -13.3031 -9.26613
38 4 2 6.45486 -13.3915 -9.30979
33 4 2 5.26511 -12.5873 -11.1419
24 3 2 -19.5332 1.36077 -13.299
14 2 2 -16.1484 5.89434 -13.2717
16 2 2 -17.9225 7.55942 -13.0634
5 1 2 -21.0369 -7.1368 19.2006
1 1 1 -20.5279 -6.93551 20.0918
6 1 2 -21.0466 -6.12612 20.5768
8 1 2 -21.7556 -8.418 20.9057
3 1 3 -20.3167 -8.05206 22.3005
2 1 1 -20.6703 -8.18738 20.8934
7 1 2 -20.1721 -8.98547 20.2573
9 1 2 -19.3336 -7.87998 22.2753
4 1 2 -19.525 -6.64459 19.8018
ITEM: TIMESTEP
8800
ITEM: NUMBER OF ATOMS
38
ITEM: BOX BOUNDS pp pp pp
-2.6905500000000000e+01 2.6905500000000000e+01
-2.6905500000000000e+01 2.6905500000000000e+01
-2.6905500000000000e+01 2.6905500000000000e+01
ITEM: ATOMS id mol type x y z
27 3 2 -20.8048 0.52049 -16.8559
26 3 2 -21.9782 1.18847 -14.688
20 3 1 -21.0553 1.63865 -15.2031
21 3 3 -20.2901 0.792101 -16.0261
25 3 2 -21.4098 2.56952 -15.7686
28 3 2 -19.4324 3.7217 -15.1833
19 3 1 -20.1096 2.24669 -14.1502
22 3 3 -19.0637 2.97807 -14.6972
23 3 2 -20.7758 2.77573 -13.4133
17 2 2 -18.3738 5.832 -13.5667
15 2 2 -16.7455 5.30314 -15.1928
10 2 1 -16.417 5.94464 -14.3986
11 2 1 -17.6233 6.64949 -13.9315
13 2 2 -15.6922 6.61211 -14.7991
12 2 3 -18.2114 7.4617 -14.9282
18 2 2 -17.4136 8.08393 -15.255
37 4 2 4.9679 -16.4642 -11.1434
31 4 3 4.9256 -15.7998 -10.3869
30 4 1 5.39745 -14.6144 -10.9736
36 4 2 4.80719 -14.2712 -11.8664
35 4 2 6.49621 -14.7213 -11.3133
34 4 2 4.29863 -13.3438 -9.74589
29 4 1 5.35548 -13.3999 -10.0609
32 4 3 5.94089 -13.635 -8.79824
38 4 2 6.9214 -13.7181 -8.95116
33 4 2 5.65044 -12.4693 -10.5699
24 3 2 -19.6075 1.43694 -13.5388
14 2 2 -15.9209 5.27081 -13.6399
16 2 2 -17.354 7.34177 -13.057
5 1 2 -21.7151 -7.71093 19.0776
1 1 1 -21.1201 -7.35678 19.9456
6 1 2 -21.758 -6.51915 20.4211
8 1 2 -21.8685 -8.8528 21.2419
3 1 3 -20.2115 -8.15367 22.1236
2 1 1 -20.8606 -8.52267 20.9888
7 1 2 -20.33 -9.27346 20.5148
9 1 2 -19.3244 -7.85913 21.8963
4 1 2 -20.1232 -6.87362 19.5415
ITEM: TIMESTEP
9000
ITEM: NUMBER OF ATOMS
38
ITEM: BOX BOUNDS pp pp pp
-2.6905500000000000e+01 2.6905500000000000e+01
-2.6905500000000000e+01 2.6905500000000000e+01
-2.6905500000000000e+01 2.6905500000000000e+01
ITEM: ATOMS id mol type x y z
27 3 2 -21.578 0.524441 -16.4351
26 3 2 -21.926 1.32915 -14.2968
20 3 1 -21.1798 1.88281 -14.9993
21 3 3 -20.8172 1.15299 -16.1836
25 3 2 -21.7048 2.76799 -15.2982
28 3 2 -19.1248 3.57316 -15.1453
19 3 1 -19.9552 2.06494 -14.1366
22 3 3 -18.8403 2.64969 -14.7947
23 3 2 -20.1688 2.59878 -13.2106
17 2 2 -18.3381 5.78981 -13.8312
15 2 2 -16.6723 5.36536 -15.7178
10 2 1 -16.4253 5.96491 -14.829
11 2 1 -17.705 6.59225 -14.1776
13 2 2 -15.7757 6.77382 -15.1442
12 2 3 -18.343 7.46498 -15.0692
18 2 2 -17.7217 8.16027 -15.2608
37 4 2 4.83441 -16.1983 -11.4097
31 4 3 4.73303 -15.5633 -10.5965
30 4 1 5.33537 -14.3347 -10.9452
36 4 2 4.66285 -13.8218 -11.6587
35 4 2 6.31007 -14.5904 -11.3914
34 4 2 4.55654 -13.2359 -9.21102
29 4 1 5.51546 -13.4015 -9.76581
32 4 3 6.50358 -13.9049 -8.90311
38 4 2 7.384 -13.919 -9.41
33 4 2 5.80976 -12.3862 -10.1298
24 3 2 -19.6762 1.00719 -13.9075
14 2 2 -15.9524 5.34049 -14.0218
16 2 2 -17.4245 7.2187 -13.3308
5 1 2 -20.9989 -7.34474 19.025
1 1 1 -20.5874 -7.22111 20.1179
6 1 2 -21.2301 -6.53513 20.7789
8 1 2 -21.7153 -8.98031 20.6279
3 1 3 -20.1038 -8.72054 21.9327
2 1 1 -20.6136 -8.62054 20.642
7 1 2 -20.1183 -9.40467 20.0312
9 1 2 -19.1046 -8.44055 21.9158
4 1 2 -19.5694 -6.91263 20.1688
ITEM: TIMESTEP
9200
ITEM: NUMBER OF ATOMS
38
ITEM: BOX BOUNDS pp pp pp
-2.6905500000000000e+01 2.6905500000000000e+01
-2.6905500000000000e+01 2.6905500000000000e+01
-2.6905500000000000e+01 2.6905500000000000e+01
ITEM: ATOMS id mol type x y z
27 3 2 -21.581 0.725941 -16.925
26 3 2 -21.9157 0.781905 -14.8814
20 3 1 -21.1204 1.54169 -15.2527
21 3 3 -20.666 0.978813 -16.5225
25 3 2 -21.6598 2.57508 -15.4855
28 3 2 -19.1431 3.36132 -14.848
19 3 1 -19.9476 1.65501 -14.2216
22 3 3 -18.8221 2.40842 -14.6651
17 2 2 -18.7519 6.22084 -13.3712
15 2 2 -17.5108 4.94956 -15.0743
10 2 1 -17.0139 5.63684 -14.3675
11 2 1 -17.8803 6.74582 -13.8606
13 2 2 -16.2546 6.20037 -14.9844
24 3 2 -19.537 0.686522 -13.9919
14 2 2 -16.6428 5.07969 -13.541
12 2 3 -18.363 7.53562 -14.951
18 2 2 -17.5694 7.82279 -15.408
37 4 2 4.09833 -15.4196 -11.8574
31 4 3 4.71342 -15.3196 -11.044
30 4 1 5.09992 -13.9717 -11.0198
36 4 2 4.26886 -13.3447 -11.3289
35 4 2 5.87171 -13.8407 -11.7529
32 4 3 6.73754 -14.136 -9.03114
38 4 2 7.53922 -13.8824 -9.52171
34 4 2 4.73443 -13.6522 -8.90415
29 4 1 5.62859 -13.4748 -9.56821
33 4 2 5.8129 -12.3609 -9.55001
23 3 2 -20.355 2.12263 -13.2221
16 2 2 -17.2634 7.39796 -13.146
5 1 2 -21.2052 -6.90317 19.374
1 1 1 -20.5577 -7.21639 20.1523
7 1 2 -20.9637 -9.32529 19.7675
4 1 2 -19.4604 -7.23736 19.7892
8 1 2 -22.0129 -8.5661 21.0281
2 1 1 -21.013 -8.61062 20.6713
3 1 3 -20.2888 -9.09708 21.8235
9 1 2 -19.4386 -9.46242 21.5269
6 1 2 -20.628 -6.41875 20.9164
ITEM: TIMESTEP
9400
ITEM: NUMBER OF ATOMS
38
ITEM: BOX BOUNDS pp pp pp
-2.6905500000000000e+01 2.6905500000000000e+01
-2.6905500000000000e+01 2.6905500000000000e+01
-2.6905500000000000e+01 2.6905500000000000e+01
ITEM: ATOMS id mol type x y z
27 3 2 -21.4512 0.998777 -17.3473
26 3 2 -22.0425 0.431726 -15.1495
20 3 1 -21.2748 1.24677 -15.4143
21 3 3 -20.7294 1.09194 -16.7181
25 3 2 -21.6812 2.28297 -15.2446
28 3 2 -19.5301 3.05449 -14.2762
19 3 1 -20.0689 1.15155 -14.3831
22 3 3 -19.091 2.22573 -14.6043
17 2 2 -18.4239 6.80616 -13.1161
15 2 2 -17.8423 5.18412 -14.85
10 2 1 -17.0724 5.96022 -14.568
11 2 1 -17.834 7.18881 -14.0069
13 2 2 -16.4974 6.20876 -15.4476
24 3 2 -19.5123 0.147902 -14.3981
14 2 2 -16.4816 5.57783 -13.7233
12 2 3 -18.6825 7.74515 -14.9203
18 2 2 -18.2259 7.78348 -15.8511
37 4 2 4.49385 -15.3863 -11.7001
31 4 3 4.79757 -15.2879 -10.7511
30 4 1 5.28465 -13.9802 -10.6653
36 4 2 4.42486 -13.3034 -10.9702
35 4 2 6.17883 -13.8096 -11.3459
32 4 3 6.69602 -14.1614 -8.64234
38 4 2 7.49294 -13.9066 -9.16395
34 4 2 4.70923 -13.8155 -8.61063
29 4 1 5.61811 -13.5244 -9.20548
33 4 2 5.78842 -12.4507 -9.16338
23 3 2 -20.4486 1.30654 -13.3212
16 2 2 -17.1243 7.95222 -13.7078
5 1 2 -21.714 -6.9956 19.0516
1 1 1 -21.0788 -7.33996 19.9244
7 1 2 -21.0224 -9.45738 19.2906
4 1 2 -20.0198 -7.08988 19.6895
8 1 2 -22.3739 -8.99124 20.3361
2 1 1 -21.3422 -8.84237 20.1946
3 1 3 -20.5272 -9.23041 21.2842
9 1 2 -19.5983 -8.94307 21.1815
6 1 2 -21.4461 -6.76257 20.8223
ITEM: TIMESTEP
9600
ITEM: NUMBER OF ATOMS
38
ITEM: BOX BOUNDS pp pp pp
-2.6905500000000000e+01 2.6905500000000000e+01
-2.6905500000000000e+01 2.6905500000000000e+01
-2.6905500000000000e+01 2.6905500000000000e+01
ITEM: ATOMS id mol type x y z
27 3 2 -21.208 1.31465 -17.4293
26 3 2 -21.9329 0.838011 -15.363
20 3 1 -21.1161 1.52303 -15.5282
21 3 3 -20.514 1.24728 -16.7887
25 3 2 -21.5386 2.5309 -15.4497
28 3 2 -19.5242 3.17165 -14.5297
19 3 1 -20.1866 1.37407 -14.3005
22 3 3 -19.1213 2.2717 -14.5051
17 2 2 -18.2308 7.44977 -13.2207
15 2 2 -18.1119 5.17643 -14.5293
10 2 1 -17.248 5.90651 -14.5637
11 2 1 -17.8131 7.34037 -14.2941
13 2 2 -16.6533 5.99607 -15.5735
24 3 2 -19.7933 0.284429 -14.2249
14 2 2 -16.5952 5.67484 -13.7339
12 2 3 -18.8281 7.68212 -15.1586
18 2 2 -18.3934 7.75241 -16.1007
37 4 2 4.2453 -16.0873 -11.4959
31 4 3 4.77225 -15.7852 -10.6974
30 4 1 5.04561 -14.4041 -10.9432
36 4 2 4.12996 -13.8451 -11.2787
35 4 2 5.84766 -14.2922 -11.6901
32 4 3 6.75196 -14.1996 -9.20825
38 4 2 7.4547 -13.9584 -9.89692
34 4 2 4.78161 -13.8753 -8.85801
29 4 1 5.53426 -13.7411 -9.6449
33 4 2 5.47621 -12.6709 -9.8592
23 3 2 -20.7069 1.68576 -13.3151
16 2 2 -17.0559 8.1728 -14.3229
5 1 2 -22.3513 -7.61425 19.0541
1 1 1 -21.6467 -7.66333 19.8694
7 1 2 -20.6703 -9.46469 19.2534
4 1 2 -20.8298 -6.9654 19.5919
8 1 2 -21.9836 -9.71196 20.4176
2 1 1 -21.1359 -9.06914 20.1834
3 1 3 -20.2893 -9.13924 21.2741
9 1 2 -19.5387 -8.53606 21.0745
6 1 2 -22.1691 -7.22972 20.7274
ITEM: TIMESTEP
9800
ITEM: NUMBER OF ATOMS
38
ITEM: BOX BOUNDS pp pp pp
-2.6905500000000000e+01 2.6905500000000000e+01
-2.6905500000000000e+01 2.6905500000000000e+01
-2.6905500000000000e+01 2.6905500000000000e+01
ITEM: ATOMS id mol type x y z
27 3 2 -20.3375 0.540274 -17.7328
26 3 2 -21.6704 0.289097 -15.8288
20 3 1 -20.9562 1.17843 -15.9744
21 3 3 -19.9268 0.865224 -16.888
25 3 2 -21.5447 2.03573 -16.3016
28 3 2 -19.9701 3.27833 -14.776
19 3 1 -20.4482 1.43306 -14.5329
22 3 3 -19.4904 2.45452 -14.4286
17 2 2 -18.7936 7.21448 -12.9081
15 2 2 -18.3211 5.30772 -14.5594
10 2 1 -17.535 6.06418 -14.2471
11 2 1 -18.2053 7.41288 -13.7844
13 2 2 -16.8345 6.34079 -15.1008
24 3 2 -20.0126 0.559811 -14.0804
14 2 2 -16.917 5.58387 -13.4801
12 2 3 -19.0947 8.01971 -14.6748
18 2 2 -18.6158 8.44028 -15.4899
37 4 2 4.067 -15.7142 -11.8185
31 4 3 4.45218 -15.5324 -10.9607
30 4 1 4.994 -14.1686 -11.0095
36 4 2 4.17817 -13.5614 -11.2771
35 4 2 5.87506 -14.0918 -11.7268
32 4 3 6.64587 -14.3972 -9.18457
38 4 2 7.40908 -14.3015 -9.83691
34 4 2 4.67126 -13.7472 -8.89927
29 4 1 5.53665 -13.6976 -9.68266
33 4 2 5.78051 -12.6312 -9.82516
23 3 2 -21.3249 1.66127 -13.9598
16 2 2 -17.4354 8.15415 -13.4491
5 1 2 -22.0853 -7.87365 18.9074
1 1 1 -21.6161 -7.69718 19.8739
7 1 2 -20.1872 -9.30068 19.6318
4 1 2 -20.8244 -6.94427 19.6824
8 1 2 -21.7193 -9.8158 20.533
2 1 1 -21.01 -8.97766 20.3911
3 1 3 -20.5767 -8.67941 21.7274
9 1 2 -19.883 -7.9148 21.6932
6 1 2 -22.3649 -7.25837 20.5883
ITEM: TIMESTEP
10000
ITEM: NUMBER OF ATOMS
38
ITEM: BOX BOUNDS pp pp pp
-2.6905500000000000e+01 2.6905500000000000e+01
-2.6905500000000000e+01 2.6905500000000000e+01
-2.6905500000000000e+01 2.6905500000000000e+01
ITEM: ATOMS id mol type x y z
27 3 2 -20.2971 0.184944 -17.7415
26 3 2 -21.671 0.122106 -15.8973
20 3 1 -20.8677 0.889379 -16.0919
25 3 2 -21.3555 1.69388 -16.6843
19 3 1 -20.4143 1.33314 -14.6967
23 3 2 -21.278 1.71625 -14.1396
21 3 3 -19.8229 0.349657 -16.8867
28 3 2 -19.6893 3.2054 -14.9504
22 3 3 -19.3367 2.29819 -14.6353
15 2 2 -17.6754 5.69926 -15.1326
10 2 1 -16.9673 6.28342 -14.4491
24 3 2 -20.1583 0.413095 -14.1576
14 2 2 -16.3583 5.58585 -13.7996
11 2 1 -17.8935 7.19688 -13.6177
13 2 2 -16.3325 6.97854 -15.0612
12 2 3 -18.7092 7.94585 -14.5332
18 2 2 -18.163 8.66713 -14.961
37 4 2 4.41886 -15.9208 -11.1881
31 4 3 4.7793 -15.4308 -10.391
30 4 1 5.07026 -14.0811 -10.7855
36 4 2 4.17749 -13.5327 -11.0968
35 4 2 5.7709 -14.0936 -11.5937
34 4 2 4.90099 -13.5051 -8.7533
32 4 3 6.86188 -14.0739 -9.22746
38 4 2 7.61047 -13.7161 -9.7236
29 4 1 5.62413 -13.4166 -9.61013
33 4 2 5.75401 -12.2873 -9.75843
17 2 2 -18.6049 6.59285 -12.9935
16 2 2 -17.3166 7.89249 -12.9486
5 1 2 -22.1342 -7.50095 18.6393
1 1 1 -21.9873 -7.53414 19.7974
7 1 2 -20.2298 -8.7685 19.5034
8 1 2 -21.6651 -9.65951 19.61
2 1 1 -21.1435 -8.78241 20.0839
4 1 2 -21.4743 -6.53688 20.142
3 1 3 -20.9465 -8.94589 21.5171
9 1 2 -20.5644 -8.10984 21.8637
6 1 2 -23.0286 -7.67824 20.1824
ITEM: TIMESTEP
10200
ITEM: NUMBER OF ATOMS
38
ITEM: BOX BOUNDS pp pp pp
-2.6905500000000000e+01 2.6905500000000000e+01
-2.6905500000000000e+01 2.6905500000000000e+01
-2.6905500000000000e+01 2.6905500000000000e+01
ITEM: ATOMS id mol type x y z
27 3 2 -21.2137 0.512238 -17.7727
26 3 2 -21.4595 -0.140869 -15.6923
20 3 1 -21.1243 0.914966 -15.9264
25 3 2 -21.983 1.59197 -15.9277
19 3 1 -20.1315 1.43242 -14.84
23 3 2 -20.7021 1.46039 -13.8756
21 3 3 -20.5404 0.922853 -17.137
28 3 2 -20.1921 3.40148 -15.33
22 3 3 -19.5227 2.71555 -15.1424
15 2 2 -17.7603 5.67292 -14.8528
10 2 1 -17.1354 6.41196 -14.4504
24 3 2 -19.318 0.726399 -14.7375
14 2 2 -16.2959 5.93195 -13.9074
11 2 1 -17.9457 7.209 -13.4382
13 2 2 -16.89 7.07192 -15.2838
12 2 3 -18.9029 8.00958 -14.1904
18 2 2 -18.3385 8.5951 -14.6518
37 4 2 4.28947 -16.156 -11.2412
31 4 3 4.64277 -15.6478 -10.5214
30 4 1 5.06627 -14.3781 -10.9891
36 4 2 4.16569 -13.8514 -11.4419
35 4 2 5.82635 -14.5294 -11.75
34 4 2 4.93767 -13.3602 -9.08444
32 4 3 6.73461 -14.2111 -9.15081
38 4 2 7.43171 -14.3038 -9.77962
29 4 1 5.71193 -13.5604 -9.85246
33 4 2 6.04847 -12.5446 -10.1367
17 2 2 -18.4541 6.38677 -12.7844
16 2 2 -17.2265 7.92587 -12.8384
5 1 2 -22.2042 -7.29095 18.3141
1 1 1 -22.0685 -7.38304 19.3896
7 1 2 -20.2316 -8.64152 19.2559
8 1 2 -21.7612 -9.46397 19.339
2 1 1 -21.2079 -8.61334 19.7919
4 1 2 -21.6237 -6.41983 19.7305
3 1 3 -21.0899 -8.74375 21.2026
9 1 2 -20.4643 -8.06307 21.5152
6 1 2 -23.047 -7.5053 19.8276
ITEM: TIMESTEP
10400
ITEM: NUMBER OF ATOMS
38
ITEM: BOX BOUNDS pp pp pp
-2.6905500000000000e+01 2.6905500000000000e+01
-2.6905500000000000e+01 2.6905500000000000e+01
-2.6905500000000000e+01 2.6905500000000000e+01
ITEM: ATOMS id mol type x y z
27 3 2 -21.6277 0.564441 -17.2132
26 3 2 -21.7429 0.300717 -14.8365
20 3 1 -21.2012 1.13943 -15.3641
25 3 2 -21.842 1.99323 -15.3997
19 3 1 -19.9324 1.59251 -14.5766
23 3 2 -20.1628 1.8502 -13.5149
21 3 3 -20.8397 0.776303 -16.686
28 3 2 -19.7186 3.41576 -15.1487
22 3 3 -19.1598 2.6069 -15.0417
15 2 2 -18.2086 6.10932 -14.6369
10 2 1 -17.3909 6.52078 -14.1315
24 3 2 -19.2912 0.698726 -14.5572
14 2 2 -17.0473 5.75148 -13.4418
11 2 1 -18.1382 7.71824 -13.4853
13 2 2 -16.553 6.89335 -14.7731
12 2 3 -18.7679 8.4409 -14.4628
18 2 2 -18.1307 8.72885 -15.1107
37 4 2 3.95861 -16.2478 -11.4862
31 4 3 4.56425 -15.8306 -10.7202
30 4 1 4.86124 -14.4489 -10.9615
36 4 2 3.88007 -13.8701 -11.0174
35 4 2 5.43659 -14.3109 -11.8969
34 4 2 5.02611 -13.9733 -8.83196
32 4 3 6.91164 -14.4783 -9.60694
38 4 2 7.36267 -14.3008 -10.5321
29 4 1 5.62617 -13.8959 -9.74824
33 4 2 5.75412 -12.7692 -9.88338
17 2 2 -18.9551 7.3008 -12.7745
16 2 2 -17.4196 8.3641 -12.9008
5 1 2 -21.988 -7.50512 18.0114
1 1 1 -22.1589 -7.73286 19.106
7 1 2 -20.0719 -7.46085 19.5306
8 1 2 -20.6177 -9.15304 19.2928
2 1 1 -20.8802 -8.13413 19.7617
4 1 2 -22.4536 -6.72912 19.5676
3 1 3 -20.9584 -8.24805 21.184
9 1 2 -21.2048 -7.30303 21.4492
6 1 2 -22.9048 -8.57718 19.2056
ITEM: TIMESTEP
10600
ITEM: NUMBER OF ATOMS
38
ITEM: BOX BOUNDS pp pp pp
-2.6905500000000000e+01 2.6905500000000000e+01
-2.6905500000000000e+01 2.6905500000000000e+01
-2.6905500000000000e+01 2.6905500000000000e+01
ITEM: ATOMS id mol type x y z
27 3 2 -21.5705 0.568995 -17.603
26 3 2 -21.9789 0.421342 -15.3723
20 3 1 -21.2482 1.19911 -15.7486
25 3 2 -21.8222 2.15717 -15.9342
19 3 1 -20.0882 1.50915 -14.7328
23 3 2 -20.6614 1.89349 -13.8197
21 3 3 -20.7985 0.815525 -16.9607
28 3 2 -19.4856 3.33419 -15.314
22 3 3 -19.1088 2.44499 -15.2339
15 2 2 -17.9221 5.85844 -14.477
10 2 1 -17.2559 6.51189 -13.9432
24 3 2 -19.5619 0.550973 -14.5128
14 2 2 -16.7684 5.93224 -13.1396
11 2 1 -17.9366 7.68016 -13.3737
13 2 2 -16.4747 6.82841 -14.6493
12 2 3 -18.6166 8.34329 -14.4149
18 2 2 -17.9086 8.61825 -15.072
37 4 2 4.20751 -16.2229 -11.7341
31 4 3 4.71917 -15.9753 -10.9512
30 4 1 4.62403 -14.624 -10.8547
36 4 2 3.58177 -14.2958 -10.6946
35 4 2 5.06025 -14.1299 -11.7752
34 4 2 4.99801 -14.2881 -8.66777
32 4 3 6.76584 -14.4568 -9.60878
38 4 2 7.22956 -14.1849 -10.4347
29 4 1 5.428 -14.005 -9.64834
33 4 2 5.41453 -12.9005 -9.73547
17 2 2 -18.6849 7.31823 -12.6597
16 2 2 -17.1829 8.37184 -12.9657
5 1 2 -22.5925 -8.10991 18.1591
1 1 1 -22.4695 -7.94535 19.2115
7 1 2 -20.3474 -7.87722 19.1521
8 1 2 -21.0878 -9.55979 19.1897
2 1 1 -21.1511 -8.46339 19.6402
4 1 2 -22.415 -6.89178 19.4936
3 1 3 -20.8863 -8.43429 20.9924
9 1 2 -20.9411 -7.4438 21.2643
6 1 2 -23.2531 -8.37564 19.8062
ITEM: TIMESTEP
10800
ITEM: NUMBER OF ATOMS
38
ITEM: BOX BOUNDS pp pp pp
-2.6905500000000000e+01 2.6905500000000000e+01
-2.6905500000000000e+01 2.6905500000000000e+01
-2.6905500000000000e+01 2.6905500000000000e+01
ITEM: ATOMS id mol type x y z
27 3 2 -21.5928 0.144679 -17.1694
26 3 2 -22.0343 0.770867 -15.0708
20 3 1 -21.3617 1.3256 -15.6507
25 3 2 -21.8544 2.27458 -15.9596
19 3 1 -20.268 1.72566 -14.7039
23 3 2 -20.6537 2.30322 -13.9026
21 3 3 -20.8566 0.634957 -16.7473
28 3 2 -19.6979 3.3154 -15.696
22 3 3 -19.3012 2.47195 -15.4023
15 2 2 -18.7367 5.71808 -14.2937
10 2 1 -18.0319 6.19184 -13.701
24 3 2 -19.8359 0.790229 -14.1992
14 2 2 -17.996 5.711 -12.6849
11 2 1 -18.3135 7.70199 -13.5121
13 2 2 -17.0789 6.14773 -14.2133
12 2 3 -18.3828 8.38173 -14.7815
18 2 2 -17.449 8.43391 -15.172
37 4 2 4.15707 -16.4651 -11.4682
31 4 3 4.74046 -16.0958 -10.7574
30 4 1 4.85623 -14.6667 -11.023
36 4 2 3.86032 -14.2069 -11.0546
35 4 2 5.32717 -14.444 -11.9943
34 4 2 5.148 -13.8412 -9.00323
32 4 3 6.91346 -14.3732 -9.66839
38 4 2 7.39044 -14.4962 -10.4959
29 4 1 5.65732 -13.9003 -9.99659
33 4 2 5.69288 -12.8218 -10.3077
17 2 2 -19.2958 7.8426 -12.9538
16 2 2 -17.5023 8.10764 -12.8992
5 1 2 -22.5655 -8.3092 17.889
1 1 1 -22.6506 -8.21952 19.0076
7 1 2 -20.5128 -8.01969 19.0525
8 1 2 -21.1847 -9.6388 19.4138
2 1 1 -21.3083 -8.57906 19.6065
4 1 2 -22.8578 -7.21943 19.2245
3 1 3 -21.2036 -8.30657 21.0213
9 1 2 -21.479 -7.41659 21.1116
6 1 2 -23.5474 -8.73545 19.4827
ITEM: TIMESTEP
11000
ITEM: NUMBER OF ATOMS
38
ITEM: BOX BOUNDS pp pp pp
-2.6905500000000000e+01 2.6905500000000000e+01
-2.6905500000000000e+01 2.6905500000000000e+01
-2.6905500000000000e+01 2.6905500000000000e+01
ITEM: ATOMS id mol type x y z
27 3 2 -21.8117 0.0870849 -17.1664
26 3 2 -22.3654 0.702708 -14.9553
20 3 1 -21.6422 1.17522 -15.4992
25 3 2 -22.0827 2.09937 -15.9521
19 3 1 -20.3397 1.60636 -14.7146
23 3 2 -20.7081 2.25623 -13.8865
21 3 3 -21.1031 0.440885 -16.5309
28 3 2 -19.7903 3.12752 -15.8665
22 3 3 -19.3793 2.33542 -15.4639
15 2 2 -18.4693 6.04542 -14.0469
10 2 1 -17.6932 6.56053 -13.4662
24 3 2 -19.8115 0.729756 -14.2654
14 2 2 -17.6736 6.11209 -12.4871
11 2 1 -17.9772 8.03544 -13.457
13 2 2 -16.7394 6.36067 -14.0123
12 2 3 -18.1649 8.52784 -14.7955
18 2 2 -17.3463 8.43389 -15.3421
37 4 2 4.66737 -16.5922 -11.5702
31 4 3 4.85935 -15.9145 -10.8655
30 4 1 5.05759 -14.6477 -11.5122
36 4 2 4.06547 -14.368 -11.8204
35 4 2 5.70698 -14.8388 -12.4586
34 4 2 4.83804 -13.5298 -9.73244
32 4 3 6.73294 -14.1759 -9.76737
38 4 2 7.44783 -14.3394 -10.4847
29 4 1 5.61969 -13.6706 -10.4928
33 4 2 5.99749 -12.6919 -10.994
17 2 2 -18.9709 8.11404 -12.8769
16 2 2 -17.315 8.68924 -12.8736
5 1 2 -21.6551 -7.89729 17.7084
1 1 1 -22.1431 -8.0802 18.6864
7 1 2 -20.5305 -7.37248 19.9798
8 1 2 -20.4287 -9.11354 19.5587
2 1 1 -21.1111 -8.26019 19.8206
4 1 2 -22.796 -7.17231 18.8803
3 1 3 -21.7313 -8.58968 21.0227
9 1 2 -22.3457 -7.86131 21.3475
6 1 2 -22.7665 -8.94753 18.7363
ITEM: TIMESTEP
11200
ITEM: NUMBER OF ATOMS
38
ITEM: BOX BOUNDS pp pp pp
-2.6905500000000000e+01 2.6905500000000000e+01
-2.6905500000000000e+01 2.6905500000000000e+01
-2.6905500000000000e+01 2.6905500000000000e+01
ITEM: ATOMS id mol type x y z
27 3 2 -22.0643 -0.0821399 -16.8765
26 3 2 -22.0017 0.405529 -14.7078
20 3 1 -21.41 1.0221 -15.4034
25 3 2 -22.0591 1.87131 -15.6958
19 3 1 -20.1259 1.5014 -14.8003
23 3 2 -20.3019 2.10536 -13.8294
21 3 3 -21.1896 0.26442 -16.5505
28 3 2 -20.084 3.1706 -15.7926
22 3 3 -19.4544 2.33349 -15.7176
15 2 2 -19.0028 6.4392 -13.5548
10 2 1 -17.8526 6.4765 -13.6233
24 3 2 -19.5121 0.63626 -14.5429
13 2 2 -17.598 5.96484 -14.5718
11 2 1 -17.3386 7.90794 -13.6738
12 2 3 -18.0666 8.68624 -14.6405
18 2 2 -18.0986 8.29914 -15.5639
16 2 2 -16.2689 7.78738 -13.9421
37 4 2 4.09065 -16.3783 -11.8226
31 4 3 4.63962 -15.8742 -11.1684
30 4 1 4.77975 -14.5125 -11.5998
36 4 2 3.77826 -14.1466 -11.852
35 4 2 5.32532 -14.5103 -12.574
34 4 2 5.01072 -13.429 -9.58771
29 4 1 5.52355 -13.6627 -10.5435
32 4 3 6.75232 -14.2728 -10.2062
38 4 2 7.11473 -14.2232 -11.1477
33 4 2 5.68845 -12.6626 -10.9617
14 2 2 -17.3456 5.90253 -12.8089
17 2 2 -17.4087 8.3907 -12.7082
5 1 2 -21.8802 -8.06781 18.026
1 1 1 -22.4421 -8.10581 18.9896
7 1 2 -20.8404 -7.13296 20.2177
8 1 2 -20.6193 -8.82481 19.8851
2 1 1 -21.3961 -8.06832 20.0753
4 1 2 -23.1223 -7.26894 19.0144
6 1 2 -22.9811 -9.06032 19.0153
3 1 3 -22.0105 -8.3115 21.2699
9 1 2 -22.4641 -7.48527 21.5107
ITEM: TIMESTEP
11400
ITEM: NUMBER OF ATOMS
38
ITEM: BOX BOUNDS pp pp pp
-2.6905500000000000e+01 2.6905500000000000e+01
-2.6905500000000000e+01 2.6905500000000000e+01
-2.6905500000000000e+01 2.6905500000000000e+01
ITEM: ATOMS id mol type x y z
27 3 2 -21.7506 -0.0389004 -16.757
26 3 2 -21.7486 0.358032 -14.6156
20 3 1 -21.3356 1.11188 -15.3559
25 3 2 -22.1997 1.76689 -15.665
19 3 1 -20.2727 2.01015 -14.7124
23 3 2 -20.6808 2.52248 -13.7862
21 3 3 -20.8902 0.406298 -16.4699
28 3 2 -20.585 3.62395 -15.7626
22 3 3 -19.793 3.0472 -15.5368
15 2 2 -18.2904 6.41677 -13.6956
10 2 1 -17.3004 6.82289 -13.989
24 3 2 -19.354 1.35489 -14.4111
13 2 2 -17.1369 6.71513 -15.0632
11 2 1 -17.2102 8.20856 -13.4392
12 2 3 -18.049 9.0019 -14.2523
18 2 2 -17.6319 9.01597 -15.1664
16 2 2 -16.1997 8.54382 -13.5026
37 4 2 4.18573 -15.6523 -12.4051
31 4 3 4.75795 -15.4705 -11.6121
30 4 1 4.71742 -14.0748 -11.5312
36 4 2 3.67006 -13.7512 -11.3896
35 4 2 5.20994 -13.5754 -12.4159
34 4 2 5.28045 -14.3705 -9.37264
29 4 1 5.61575 -13.8318 -10.3196
32 4 3 6.93755 -14.2845 -10.6061
38 4 2 7.08736 -13.9346 -11.4816
33 4 2 5.59155 -12.7795 -10.1111
14 2 2 -16.4809 6.22293 -13.5273
17 2 2 -17.5013 8.24245 -12.3575
5 1 2 -22.6792 -7.26717 17.7819
1 1 1 -22.828 -7.66955 18.8049
7 1 2 -21.1709 -6.65958 19.6866
8 1 2 -20.8255 -8.35279 19.155
2 1 1 -21.6002 -7.67183 19.6656
4 1 2 -23.6449 -7.0631 19.2878
6 1 2 -23.176 -8.74849 18.68
3 1 3 -21.8734 -8.091 21.015
9 1 2 -22.5039 -7.39413 21.3392
ITEM: TIMESTEP
11600
ITEM: NUMBER OF ATOMS
38
ITEM: BOX BOUNDS pp pp pp
-2.6905500000000000e+01 2.6905500000000000e+01
-2.6905500000000000e+01 2.6905500000000000e+01
-2.6905500000000000e+01 2.6905500000000000e+01
ITEM: ATOMS id mol type x y z
27 3 2 -21.9381 0.210225 -16.8679
26 3 2 -21.4712 0.0834959 -14.6968
20 3 1 -21.26 1.02849 -15.2394
25 3 2 -22.162 1.71177 -15.1586
19 3 1 -20.0202 1.76163 -14.6494
23 3 2 -20.1474 1.98496 -13.5284
21 3 3 -21.1058 0.680073 -16.5923
28 3 2 -20.3793 3.57045 -15.3447
22 3 3 -19.6877 2.87969 -15.3848
15 2 2 -17.9489 6.82237 -15.3293
10 2 1 -17.0387 7.12364 -14.693
24 3 2 -19.0694 1.08849 -14.7024
13 2 2 -16.4083 7.761 -15.2946
11 2 1 -17.5718 8.00822 -13.5484
12 2 3 -18.324 9.06187 -14.0571
18 2 2 -17.6434 9.53326 -14.5282
16 2 2 -16.7566 8.40921 -12.9579
37 4 2 3.91157 -15.2638 -12.3958
31 4 3 4.64826 -15.1245 -11.7652
30 4 1 4.7177 -13.7533 -11.5023
36 4 2 3.71444 -13.4033 -11.2446
35 4 2 5.10551 -13.1887 -12.3804
34 4 2 5.15422 -14.2418 -9.48982
29 4 1 5.64218 -13.6488 -10.2445
32 4 3 6.94927 -14.1346 -10.5583
38 4 2 7.13318 -13.7034 -11.3617
33 4 2 5.7344 -12.6066 -9.89817
14 2 2 -16.4842 6.30839 -14.3255
17 2 2 -18.2797 7.42663 -12.9013
5 1 2 -23.576 -7.64209 17.8521
1 1 1 -23.1838 -7.41895 18.8929
7 1 2 -21.1735 -7.95816 18.5374
8 1 2 -22.1465 -9.28439 19.3682
2 1 1 -21.999 -8.23069 19.3011
4 1 2 -22.9622 -6.30927 18.8761
6 1 2 -24.0415 -7.74767 19.5167
3 1 3 -21.5572 -7.76288 20.5714
9 1 2 -21.3921 -6.79421 20.4293
ITEM: TIMESTEP
11800
ITEM: NUMBER OF ATOMS
38
ITEM: BOX BOUNDS pp pp pp
-2.6905500000000000e+01 2.6905500000000000e+01
-2.6905500000000000e+01 2.6905500000000000e+01
-2.6905500000000000e+01 2.6905500000000000e+01
ITEM: ATOMS id mol type x y z
27 3 2 -21.6696 0.256554 -16.9872
26 3 2 -20.934 -0.203936 -14.7771
20 3 1 -20.9312 0.81316 -15.1828
25 3 2 -21.8268 1.29153 -14.9278
19 3 1 -19.7058 1.63605 -14.7425
23 3 2 -19.557 1.79334 -13.6186
21 3 3 -20.8557 0.691804 -16.6004
28 3 2 -20.5472 3.40618 -14.9695
22 3 3 -19.7212 2.93238 -15.2704
15 2 2 -17.2078 6.85498 -15.3006
10 2 1 -16.768 7.54841 -14.5094
24 3 2 -18.7265 1.1627 -15.105
13 2 2 -16.0407 8.3043 -14.9266
11 2 1 -17.8914 8.2554 -13.7634
12 2 3 -18.6805 9.10107 -14.5968
18 2 2 -18.1013 9.70796 -15.0438
16 2 2 -17.4741 8.86268 -12.9418
37 4 2 4.16051 -14.3787 -12.8668
31 4 3 4.82761 -14.6183 -12.198
30 4 1 4.58657 -13.7328 -11.144
36 4 2 3.57162 -13.7939 -10.7865
35 4 2 4.7319 -12.7267 -11.5913
34 4 2 5.28482 -14.9437 -9.55236
29 4 1 5.58368 -13.9882 -10.0016
32 4 3 6.85689 -13.9983 -10.4293
38 4 2 7.02869 -13.09 -10.6456
33 4 2 5.46253 -13.2508 -9.18955
14 2 2 -16.1242 7.01605 -13.7314
17 2 2 -18.5807 7.50634 -13.3177
5 1 2 -23.7889 -7.61822 17.9754
1 1 1 -23.4109 -7.42869 19.0626
7 1 2 -21.4446 -7.83081 18.4548
8 1 2 -22.361 -9.33033 19.066
2 1 1 -22.1365 -8.2097 19.2379
4 1 2 -23.165 -6.31379 19.1297
6 1 2 -24.1635 -7.65902 19.8364
3 1 3 -21.5006 -8.01764 20.4992
9 1 2 -21.2284 -7.06688 20.6269
ITEM: TIMESTEP
12000
ITEM: NUMBER OF ATOMS
38
ITEM: BOX BOUNDS pp pp pp
-2.6905500000000000e+01 2.6905500000000000e+01
-2.6905500000000000e+01 2.6905500000000000e+01
-2.6905500000000000e+01 2.6905500000000000e+01
ITEM: ATOMS id mol type x y z
27 3 2 -21.8429 0.337252 -16.3488
26 3 2 -20.4554 -0.460446 -14.7112
20 3 1 -20.5779 0.589818 -14.8939
25 3 2 -21.2668 0.948554 -14.1487
19 3 1 -19.3148 1.46143 -14.6978
23 3 2 -19.0228 1.29007 -13.6776
21 3 3 -21.0124 0.830045 -16.2301
28 3 2 -20.1985 3.15417 -14.3809
22 3 3 -19.4682 2.8254 -14.9721
15 2 2 -17.7496 6.50226 -14.878
10 2 1 -17.1645 7.23817 -14.3078
24 3 2 -18.4473 1.00728 -15.2601
13 2 2 -16.4946 7.69396 -15.0763
11 2 1 -18.097 8.3709 -13.7082
12 2 3 -18.9272 8.98006 -14.646
18 2 2 -18.3496 9.5632 -15.2267
16 2 2 -17.4584 9.14072 -13.2144
37 4 2 4.42975 -14.5836 -13.1963
31 4 3 4.95814 -14.834 -12.3727
30 4 1 4.81064 -13.7578 -11.4966
36 4 2 3.83335 -13.6912 -11.1276
35 4 2 5.09533 -12.8172 -12.0152
34 4 2 5.4654 -14.8618 -9.73573
29 4 1 5.70032 -13.9266 -10.1988
32 4 3 7.06008 -13.9132 -10.4883
38 4 2 7.33982 -12.9374 -10.733
33 4 2 5.44655 -13.1038 -9.55507
14 2 2 -16.5494 6.7458 -13.5124
17 2 2 -18.7984 7.89623 -12.9864
5 1 2 -23.9986 -6.78416 18.3676
1 1 1 -23.3609 -6.96704 19.2766
7 1 2 -21.8575 -8.05136 18.0922
8 1 2 -23.0789 -9.08775 18.9337
2 1 1 -22.4266 -8.21983 19.0519
4 1 2 -22.7595 -6.03078 19.446
6 1 2 -24.0075 -7.19035 20.0956
3 1 3 -21.6501 -8.38046 20.1747
9 1 2 -21.116 -7.51519 20.2005
ITEM: TIMESTEP
12200
ITEM: NUMBER OF ATOMS
38
ITEM: BOX BOUNDS pp pp pp
-2.6905500000000000e+01 2.6905500000000000e+01
-2.6905500000000000e+01 2.6905500000000000e+01
-2.6905500000000000e+01 2.6905500000000000e+01
ITEM: ATOMS id mol type x y z
26 3 2 -20.0026 -0.465159 -14.9292
27 3 2 -21.7962 0.098007 -16.389
20 3 1 -20.4239 0.547195 -15.0276
25 3 2 -21.0404 0.775128 -14.1628
21 3 3 -21.064 0.779681 -16.2613
19 3 1 -19.2778 1.51921 -14.9562
23 3 2 -18.7634 1.40272 -13.9981
28 3 2 -20.3843 2.95695 -14.2327
22 3 3 -19.7373 2.80372 -15.0564
24 3 2 -18.5899 1.25896 -15.7881
15 2 2 -16.7859 7.16316 -14.9961
10 2 1 -16.6173 7.75135 -14.0102
13 2 2 -15.9385 8.63767 -14.2679
11 2 1 -17.969 8.35228 -13.6038
12 2 3 -18.6113 8.96386 -14.6702
18 2 2 -18.0063 9.65044 -14.9627
37 4 2 5.29194 -15.2107 -13.2831
31 4 3 5.34739 -15.1682 -12.3105
30 4 1 5.35349 -13.8507 -11.9167
36 4 2 4.25304 -13.5152 -11.9827
34 4 2 5.18266 -14.3618 -9.79057
29 4 1 5.78583 -13.7308 -10.4182
32 4 3 7.13718 -13.9613 -10.0898
38 4 2 7.72075 -13.3309 -10.5908
35 4 2 5.93717 -13.2359 -12.5537
33 4 2 5.58488 -12.6949 -10.1519
16 2 2 -17.7692 8.96275 -12.6787
14 2 2 -16.1669 7.09199 -13.2263
17 2 2 -18.6619 7.52407 -13.2919
1 1 1 -23.6618 -6.88251 19.2537
7 1 2 -21.735 -7.50985 18.321
8 1 2 -22.8856 -8.86774 18.7787
2 1 1 -22.4572 -7.86314 19.0825
6 1 2 -24.33 -7.29583 20.0793
5 1 2 -24.2256 -6.8617 18.2589
4 1 2 -23.3512 -5.9224 19.4672
3 1 3 -21.8144 -7.95636 20.3457
9 1 2 -21.5897 -7.05467 20.5752
ITEM: TIMESTEP
12400
ITEM: NUMBER OF ATOMS
38
ITEM: BOX BOUNDS pp pp pp
-2.6905500000000000e+01 2.6905500000000000e+01
-2.6905500000000000e+01 2.6905500000000000e+01
-2.6905500000000000e+01 2.6905500000000000e+01
ITEM: ATOMS id mol type x y z
26 3 2 -19.2275 -0.12797 -15.378
27 3 2 -21.0541 -0.343946 -16.2368
20 3 1 -19.8387 0.70981 -15.2787
25 3 2 -20.3397 0.699603 -14.322
21 3 3 -20.718 0.642718 -16.3592
19 3 1 -18.9622 1.97868 -15.4342
23 3 2 -18.1668 1.95364 -14.5707
28 3 2 -20.003 3.20935 -14.2866
22 3 3 -19.6884 3.09722 -15.3076
24 3 2 -18.496 1.9558 -16.4659
15 2 2 -16.8324 7.03647 -14.4521
10 2 1 -16.5403 8.08367 -14.0197
13 2 2 -16.0308 8.71564 -14.7447
11 2 1 -17.7926 8.83986 -13.6312
12 2 3 -18.6467 9.0495 -14.7052
18 2 2 -18.2108 9.66955 -15.346
37 4 2 5.15547 -15.4615 -13.027
31 4 3 5.53531 -15.097 -12.1201
30 4 1 5.13529 -13.8074 -11.9984
36 4 2 4.05085 -13.7046 -12.1884
34 4 2 4.88763 -13.757 -9.78268
29 4 1 5.53205 -13.312 -10.5792
32 4 3 6.843 -13.5156 -10.2694
38 4 2 7.29934 -13.0014 -10.9223
35 4 2 5.7833 -13.2484 -12.7237
33 4 2 5.38457 -12.1605 -10.6211
16 2 2 -17.5333 9.83927 -13.1668
14 2 2 -15.966 7.93198 -13.1107
17 2 2 -18.3414 8.20303 -12.8822
1 1 1 -23.8575 -7.12483 19.6414
7 1 2 -22.2238 -7.20572 18.4068
8 1 2 -22.5901 -8.73784 19.1311
2 1 1 -22.5088 -7.66528 19.3219
6 1 2 -24.1455 -7.47171 20.6527
5 1 2 -24.6026 -7.51528 18.9058
4 1 2 -23.8947 -6.06759 19.5907
3 1 3 -21.5003 -7.45714 20.2819
9 1 2 -21.5285 -6.46833 20.4169
ITEM: TIMESTEP
12600
ITEM: NUMBER OF ATOMS
38
ITEM: BOX BOUNDS pp pp pp
-2.6905500000000000e+01 2.6905500000000000e+01
-2.6905500000000000e+01 2.6905500000000000e+01
-2.6905500000000000e+01 2.6905500000000000e+01
ITEM: ATOMS id mol type x y z
26 3 2 -19.3136 -0.229767 -15.4652
27 3 2 -21.7484 0.0752716 -15.727
20 3 1 -19.9188 0.657989 -15.3002
25 3 2 -20.2033 0.705602 -14.2172
21 3 3 -21.1157 0.753183 -16.0779
19 3 1 -18.9651 1.76464 -15.6564
23 3 2 -18.1573 1.82534 -14.9904
28 3 2 -19.7953 3.1243 -14.5975
22 3 3 -19.6146 2.91869 -15.5789
24 3 2 -18.631 1.73117 -16.6636
15 2 2 -17.1123 7.0816 -14.0316
10 2 1 -16.5668 8.07547 -13.9583
13 2 2 -16.2089 8.28644 -14.937
11 2 1 -17.4661 9.24739 -13.6677
12 2 3 -18.5103 9.41224 -14.6322
18 2 2 -18.0934 9.67834 -15.446
37 4 2 5.06062 -15.9652 -12.6337
31 4 3 5.53705 -15.5123 -11.8403
30 4 1 5.38435 -14.1605 -12.2577
36 4 2 4.26408 -13.9137 -12.4469
34 4 2 5.04582 -13.3997 -10.1042
29 4 1 5.7147 -13.2576 -11.0079
32 4 3 7.01759 -13.511 -10.6756
38 4 2 7.56522 -13.4472 -11.4705
35 4 2 5.92313 -13.8769 -13.1709
33 4 2 5.6321 -12.1511 -11.2463
16 2 2 -16.8454 10.1969 -13.59
14 2 2 -15.6921 8.06058 -13.1833
17 2 2 -17.9763 9.0873 -12.6513
1 1 1 -24.1493 -7.35642 19.7255
7 1 2 -22.4087 -7.99879 18.4436
8 1 2 -22.7677 -9.04774 19.9411
2 1 1 -22.7579 -7.98467 19.5967
6 1 2 -24.5507 -7.4039 20.7937
5 1 2 -24.8114 -7.94928 19.1029
4 1 2 -24.0552 -6.32818 19.4077
3 1 3 -21.7845 -7.34475 20.3466
9 1 2 -21.8084 -6.44146 20.0056
ITEM: TIMESTEP
12800
ITEM: NUMBER OF ATOMS
38
ITEM: BOX BOUNDS pp pp pp
-2.6905500000000000e+01 2.6905500000000000e+01
-2.6905500000000000e+01 2.6905500000000000e+01
-2.6905500000000000e+01 2.6905500000000000e+01
ITEM: ATOMS id mol type x y z
26 3 2 -19.3016 -0.155252 -15.3766
27 3 2 -21.6586 0.144872 -15.4295
20 3 1 -19.8717 0.809544 -15.2743
25 3 2 -20.1777 1.11979 -14.2481
21 3 3 -21.0843 0.789326 -15.9731
19 3 1 -19.03 1.97768 -15.8774
23 3 2 -18.118 2.05868 -15.3641
28 3 2 -19.9715 3.385 -14.8619
22 3 3 -19.7096 3.23799 -15.8649
24 3 2 -18.7529 1.72662 -16.9379
15 2 2 -17.3313 7.03118 -14.3378
10 2 1 -16.794 7.8081 -13.7338
13 2 2 -15.9317 8.02942 -14.2829
11 2 1 -17.6695 9.10453 -13.6821
12 2 3 -18.0397 9.51377 -14.9642
18 2 2 -17.1726 9.67979 -15.4772
37 4 2 5.62495 -15.8581 -12.5952
31 4 3 5.68273 -15.3215 -11.8018
30 4 1 5.66127 -13.9765 -12.1641
36 4 2 4.66186 -13.6092 -12.63
34 4 2 5.17732 -13.3692 -10.1017
29 4 1 5.91041 -13.1055 -10.9078
32 4 3 7.1061 -13.2331 -10.2755
38 4 2 7.741 -12.9967 -11.0382
35 4 2 6.42785 -13.6851 -12.8783
33 4 2 5.82235 -12.0458 -11.1282
16 2 2 -17.23 9.95145 -13.0841
14 2 2 -16.5035 7.42854 -12.745
17 2 2 -18.5853 8.90766 -13.1347
1 1 1 -23.9674 -7.41287 19.2048
7 1 2 -22.0069 -7.66453 18.4854
8 1 2 -22.5859 -9.01618 19.5813
2 1 1 -22.5658 -7.90543 19.4748
6 1 2 -24.6453 -7.61391 20.0529
5 1 2 -24.4567 -7.90735 18.3672
4 1 2 -24.0713 -6.36165 19.1081
3 1 3 -21.9468 -7.26602 20.5794
9 1 2 -22.0071 -6.31144 20.4303
ITEM: TIMESTEP
13000
ITEM: NUMBER OF ATOMS
38
ITEM: BOX BOUNDS pp pp pp
-2.6905500000000000e+01 2.6905500000000000e+01
-2.6905500000000000e+01 2.6905500000000000e+01
-2.6905500000000000e+01 2.6905500000000000e+01
ITEM: ATOMS id mol type x y z
26 3 2 -19.2015 -0.095473 -15.1776
27 3 2 -21.5738 0.166251 -15.0824
20 3 1 -19.6942 0.896134 -15.2271
25 3 2 -19.7338 1.32618 -14.2223
21 3 3 -21.0438 0.81064 -15.6563
19 3 1 -18.9414 1.87395 -16.1624
23 3 2 -17.8485 1.89035 -15.9653
28 3 2 -19.0611 3.59059 -15.3821
22 3 3 -19.4017 3.20915 -16.1846
24 3 2 -19.0365 1.51442 -17.2386
15 2 2 -17.2987 6.93706 -14.1174
10 2 1 -16.9424 7.63639 -13.3188
13 2 2 -15.8563 7.63946 -13.2863
11 2 1 -17.4695 9.03126 -13.7125
12 2 3 -17.3601 9.40555 -15.028
18 2 2 -16.3721 9.3289 -15.1666
37 4 2 5.40674 -15.7413 -12.5843
31 4 3 5.52105 -15.2497 -11.7402
30 4 1 5.64056 -13.8983 -12.1281
36 4 2 4.59092 -13.5258 -12.4508
34 4 2 5.20615 -13.0637 -10.0828
29 4 1 6.099 -13.0211 -10.8743
32 4 3 7.32896 -13.4219 -10.2978
38 4 2 7.91076 -13.3679 -11.0976
35 4 2 6.37981 -13.8171 -12.8474
33 4 2 6.20434 -12.0014 -11.0989
16 2 2 -17.0517 9.83456 -13.0497
14 2 2 -17.3137 7.33403 -12.3492
17 2 2 -18.5581 8.99266 -13.4431
1 1 1 -24.2554 -7.21316 19.5573
7 1 2 -22.1943 -7.47977 18.8069
8 1 2 -22.8161 -8.86259 19.7903
2 1 1 -22.7779 -7.73174 19.691
6 1 2 -24.8302 -7.46973 20.4523
5 1 2 -24.7737 -7.70881 18.6894
4 1 2 -24.2452 -6.08706 19.3774
3 1 3 -22.1531 -7.06045 20.7662
9 1 2 -22.1817 -6.12952 20.7217
ITEM: TIMESTEP
13200
ITEM: NUMBER OF ATOMS
38
ITEM: BOX BOUNDS pp pp pp
-2.6905500000000000e+01 2.6905500000000000e+01
-2.6905500000000000e+01 2.6905500000000000e+01
-2.6905500000000000e+01 2.6905500000000000e+01
ITEM: ATOMS id mol type x y z
26 3 2 -19.7922 -0.0819367 -15.8992
27 3 2 -21.5488 0.367823 -14.6426
21 3 3 -21.2601 1.16516 -15.2112
20 3 1 -19.9123 0.905895 -15.4217
25 3 2 -19.4456 0.861447 -14.4941
19 3 1 -19.3541 1.94064 -16.3892
23 3 2 -18.265 1.78717 -16.3309
28 3 2 -19.0838 3.35453 -15.2672
22 3 3 -19.608 3.21703 -16.0622
24 3 2 -19.7307 1.78907 -17.3682
15 2 2 -17.2903 6.78519 -13.4623
11 2 1 -17.4144 9.04627 -13.4303
12 2 3 -17.0908 9.17849 -14.8017
18 2 2 -16.1035 9.06768 -14.7831
17 2 2 -18.462 9.23905 -13.3269
37 4 2 5.46715 -15.4121 -12.8219
31 4 3 5.85901 -15.0441 -11.9403
30 4 1 5.90483 -13.665 -12.1018
36 4 2 4.92701 -13.2651 -12.4013
34 4 2 5.63655 -13.1884 -9.89057
29 4 1 6.38327 -12.9934 -10.7623
35 4 2 6.71646 -13.4626 -12.8818
33 4 2 6.35726 -11.8492 -10.7793
32 4 3 7.59499 -13.457 -10.235
38 4 2 8.40383 -13.2657 -10.8622
10 2 1 -16.9515 7.69965 -12.886
13 2 2 -15.868 7.71193 -12.7924
16 2 2 -16.8848 9.81216 -12.7915
14 2 2 -17.2684 7.56889 -11.835
1 1 1 -24.0517 -7.46375 19.4719
7 1 2 -22.0055 -7.37114 18.622
8 1 2 -22.51 -9.03012 19.1248
2 1 1 -22.6009 -7.97767 19.357
5 1 2 -24.5373 -7.57483 18.4346
4 1 2 -24.1481 -6.43165 19.7415
6 1 2 -24.6275 -8.06738 20.1976
3 1 3 -21.9746 -7.82314 20.5729
9 1 2 -21.9867 -6.86955 20.7506
ITEM: TIMESTEP
13400
ITEM: NUMBER OF ATOMS
38
ITEM: BOX BOUNDS pp pp pp
-2.6905500000000000e+01 2.6905500000000000e+01
-2.6905500000000000e+01 2.6905500000000000e+01
-2.6905500000000000e+01 2.6905500000000000e+01
ITEM: ATOMS id mol type x y z
26 3 2 -20.3517 -0.51026 -15.8374
27 3 2 -22.0345 0.560462 -14.6967
21 3 3 -21.4055 1.25313 -15.1943
20 3 1 -20.2356 0.553712 -15.4436
25 3 2 -19.629 0.436031 -14.4899
19 3 1 -19.441 1.38986 -16.4492
23 3 2 -18.5031 0.909859 -16.4983
28 3 2 -18.8165 2.66854 -15.0635
22 3 3 -19.2879 2.72989 -15.9704
24 3 2 -19.9045 1.46584 -17.5079
15 2 2 -17.6848 6.88632 -13.5991
11 2 1 -17.2425 8.99039 -13.394
12 2 3 -16.8466 9.28076 -14.7084
18 2 2 -15.9796 8.97486 -14.703
17 2 2 -18.3517 9.26805 -13.1852
37 4 2 5.37583 -15.598 -12.1127
31 4 3 5.77019 -15.0077 -11.4224
30 4 1 6.15771 -13.8142 -12.0936
36 4 2 5.34674 -13.3612 -12.6794
34 4 2 5.8879 -12.4312 -10.3804
29 4 1 6.69634 -12.8403 -11.0735
35 4 2 7.01034 -13.9713 -12.7709
33 4 2 7.17954 -12.0121 -11.6463
32 4 3 7.75945 -13.3594 -10.3261
38 4 2 8.47947 -13.604 -10.9189
10 2 1 -17.0257 7.51777 -12.9382
13 2 2 -15.965 7.30732 -12.941
16 2 2 -16.6404 9.61953 -12.7432
14 2 2 -17.3405 7.38659 -11.9427
1 1 1 -24.1035 -7.44686 19.4972
7 1 2 -22.0443 -7.70941 18.8979
8 1 2 -22.9013 -9.13881 19.1296
2 1 1 -22.7212 -8.18725 19.4859
5 1 2 -24.4809 -7.40818 18.3991
4 1 2 -23.9255 -6.464 19.8509
6 1 2 -24.7786 -8.02753 20.1185
3 1 3 -22.1023 -8.36253 20.7067
9 1 2 -21.9651 -7.54977 21.1061
ITEM: TIMESTEP
13600
ITEM: NUMBER OF ATOMS
38
ITEM: BOX BOUNDS pp pp pp
-2.6905500000000000e+01 2.6905500000000000e+01
-2.6905500000000000e+01 2.6905500000000000e+01
-2.6905500000000000e+01 2.6905500000000000e+01
ITEM: ATOMS id mol type x y z
26 3 2 -20.3623 -0.394389 -15.26
27 3 2 -22.1937 0.830639 -14.5196
21 3 3 -21.7582 1.11862 -15.3338
20 3 1 -20.4406 0.695854 -15.3097
25 3 2 -19.9532 1.11352 -14.358
19 3 1 -19.5083 1.16726 -16.4768
23 3 2 -18.3978 0.906541 -16.3877
28 3 2 -18.9242 2.90529 -15.9109
22 3 3 -19.5549 2.58973 -16.5724
24 3 2 -19.835 0.760946 -17.4488
15 2 2 -17.2333 6.88726 -13.2851
11 2 1 -17.2632 9.02759 -13.4981
12 2 3 -16.7904 9.06617 -14.8622
18 2 2 -15.8787 9.20251 -14.7661
17 2 2 -18.3989 9.07765 -13.4859
37 4 2 5.05206 -15.5383 -12.0999
31 4 3 5.4128 -14.9229 -11.3852
30 4 1 6.06258 -13.9273 -12.0562
36 4 2 5.31182 -13.5412 -12.7675
34 4 2 5.66239 -12.2955 -10.6381
29 4 1 6.5053 -12.7696 -11.1002
35 4 2 6.90627 -14.3816 -12.5819
33 4 2 7.06893 -12.0064 -11.7244
32 4 3 7.39467 -13.2161 -10.1145
38 4 2 8.10762 -13.6115 -10.6048
10 2 1 -16.8438 7.79987 -12.7068
13 2 2 -15.722 7.80973 -12.8012
16 2 2 -17.0024 9.92308 -12.9029
14 2 2 -17.0556 7.8172 -11.6077
1 1 1 -24.3536 -7.87321 19.8237
7 1 2 -22.4627 -6.98365 19.749
8 1 2 -22.5714 -8.60377 19.0798
2 1 1 -22.8422 -8.00355 19.8879
5 1 2 -24.4658 -7.40901 18.8539
4 1 2 -24.5812 -7.18641 20.5912
6 1 2 -24.8981 -8.83269 20.0384
3 1 3 -22.3192 -8.42207 21.0498
9 1 2 -22.3562 -7.74127 21.7483
ITEM: TIMESTEP
13800
ITEM: NUMBER OF ATOMS
38
ITEM: BOX BOUNDS pp pp pp
-2.6905500000000000e+01 2.6905500000000000e+01
-2.6905500000000000e+01 2.6905500000000000e+01
-2.6905500000000000e+01 2.6905500000000000e+01
ITEM: ATOMS id mol type x y z
26 3 2 -20.0638 -0.33134 -15.108
27 3 2 -22.1627 0.260755 -14.6373
21 3 3 -21.7896 0.776104 -15.3043
20 3 1 -20.3651 0.736987 -15.1838
25 3 2 -20.0623 1.28688 -14.2516
19 3 1 -19.6519 1.4759 -16.2893
23 3 2 -18.6215 1.36722 -16.0911
28 3 2 -19.5804 3.25152 -15.4911
22 3 3 -19.8859 2.81381 -16.3234
24 3 2 -19.8287 1.02532 -17.2944
15 2 2 -17.2965 6.86062 -13.2734
11 2 1 -16.9939 9.08286 -13.3269
12 2 3 -16.2598 9.20671 -14.5313
18 2 2 -15.2635 9.08897 -14.3987
17 2 2 -18.0253 9.36623 -13.5019
37 4 2 5.37716 -15.9644 -12.078
31 4 3 5.58961 -15.225 -11.4344
30 4 1 6.00199 -14.1498 -12.2996
36 4 2 5.12032 -13.8546 -12.8706
34 4 2 5.3721 -12.5957 -10.9101
29 4 1 6.36656 -12.9511 -11.4248
35 4 2 6.82671 -14.4296 -12.9606
33 4 2 6.6669 -12.1312 -12.169
32 4 3 7.28492 -13.1664 -10.4522
38 4 2 8.17077 -13.4421 -10.8211
10 2 1 -16.9583 7.77491 -12.5883
13 2 2 -15.9573 7.55457 -12.327
16 2 2 -16.4796 9.86896 -12.6839
14 2 2 -17.6193 7.89159 -11.6655
1 1 1 -24.3032 -8.21687 19.824
7 1 2 -22.9382 -6.71979 20.5612
8 1 2 -22.1684 -7.60736 19.1855
2 1 1 -22.8729 -7.67513 20.1191
5 1 2 -24.7478 -7.54624 19.1093
4 1 2 -24.8481 -8.21532 20.7916
6 1 2 -24.2371 -9.24009 19.3974
3 1 3 -22.231 -8.43499 21.045
9 1 2 -22.7006 -8.45755 21.9149
ITEM: TIMESTEP
14000
ITEM: NUMBER OF ATOMS
38
ITEM: BOX BOUNDS pp pp pp
-2.6905500000000000e+01 2.6905500000000000e+01
-2.6905500000000000e+01 2.6905500000000000e+01
-2.6905500000000000e+01 2.6905500000000000e+01
ITEM: ATOMS id mol type x y z
27 3 2 -21.5775 -0.117876 -14.4703
26 3 2 -19.8874 -0.509957 -15.7534
21 3 3 -21.5304 0.492415 -15.2056
20 3 1 -20.139 0.476044 -15.4168
25 3 2 -19.6119 0.698724 -14.4589
19 3 1 -19.7153 1.47222 -16.5674
23 3 2 -18.6043 1.34345 -16.8453
28 3 2 -19.6147 3.08371 -15.406
22 3 3 -20.006 2.86088 -16.3019
24 3 2 -20.1687 1.15369 -17.5165
15 2 2 -16.9704 7.03221 -13.7821
12 2 3 -16.2115 9.48857 -14.078
18 2 2 -15.3277 9.66958 -14.2674
37 4 2 5.55425 -16.0914 -12.276
31 4 3 5.73873 -15.4012 -11.6685
30 4 1 6.1985 -14.3295 -12.433
36 4 2 5.38649 -14.1881 -13.2288
35 4 2 7.23368 -14.5861 -12.9176
34 4 2 5.30867 -12.8582 -11.2163
29 4 1 6.32675 -13.016 -11.6473
33 4 2 6.57501 -12.2142 -12.3325
32 4 3 7.18953 -13.0545 -10.5596
38 4 2 8.08513 -13.2903 -10.8783
11 2 1 -16.2954 8.79506 -12.8336
17 2 2 -17.2702 8.95677 -12.3906
10 2 1 -16.2048 7.2972 -12.9553
13 2 2 -15.1917 7.06349 -13.2925
16 2 2 -15.6801 9.23649 -12.0532
14 2 2 -16.4014 6.75002 -12.0221
8 1 2 -22.0106 -7.37149 19.6534
5 1 2 -24.4545 -7.85471 19.4655
6 1 2 -23.5891 -9.41245 19.7014
1 1 1 -23.8724 -8.43082 20.2052
2 1 1 -22.662 -7.56202 20.5513
4 1 2 -24.5081 -8.6534 21.0322
3 1 3 -21.9409 -8.20423 21.5548
9 1 2 -22.415 -8.38415 22.3742
7 1 2 -22.9691 -6.56296 20.9602
ITEM: TIMESTEP
14200
ITEM: NUMBER OF ATOMS
38
ITEM: BOX BOUNDS pp pp pp
-2.6905500000000000e+01 2.6905500000000000e+01
-2.6905500000000000e+01 2.6905500000000000e+01
-2.6905500000000000e+01 2.6905500000000000e+01
ITEM: ATOMS id mol type x y z
27 3 2 -21.2789 -0.30889 -13.871
26 3 2 -19.8309 -0.904661 -15.5041
21 3 3 -21.3839 0.2321 -14.6802
20 3 1 -20.0871 0.171689 -15.2333
25 3 2 -19.5243 0.594971 -14.3781
19 3 1 -19.845 1.15656 -16.4279
23 3 2 -18.8212 1.04001 -16.6451
28 3 2 -19.2544 2.80843 -15.4655
22 3 3 -20.0338 2.55367 -16.0984
24 3 2 -20.4916 0.891937 -17.2837
15 2 2 -16.8557 6.44112 -13.9545
12 2 3 -16.6973 9.04529 -14.1827
18 2 2 -15.776 9.22327 -14.474
37 4 2 5.82534 -16.2549 -12.4506
31 4 3 5.8169 -15.5533 -11.7081
30 4 1 6.16922 -14.4208 -12.4712
36 4 2 5.49109 -14.3054 -13.4335
35 4 2 7.16175 -14.464 -12.8423
34 4 2 5.03362 -13.0002 -11.2757
29 4 1 6.06729 -13.1152 -11.6433
33 4 2 6.32729 -12.1646 -12.2243
32 4 3 6.98875 -13.3174 -10.5645
38 4 2 7.93931 -13.1748 -10.9124
11 2 1 -16.5018 8.29844 -13.0217
17 2 2 -17.4056 8.15095 -12.483
10 2 1 -16.083 6.90497 -13.3964
13 2 2 -15.2077 6.92165 -14.0195
16 2 2 -15.6819 8.75423 -12.4387
14 2 2 -15.853 6.21038 -12.5902
8 1 2 -22.6278 -7.06345 19.5281
5 1 2 -24.8801 -7.86003 19.9202
6 1 2 -23.6742 -9.14366 20.061
1 1 1 -24.0541 -8.27359 20.5611
2 1 1 -22.9217 -7.29365 20.6302
4 1 2 -24.402 -8.55931 21.6136
3 1 3 -21.8374 -7.93427 21.3034
9 1 2 -22.0664 -8.28635 22.1912
7 1 2 -23.1118 -6.35287 21.0894
ITEM: TIMESTEP
14400
ITEM: NUMBER OF ATOMS
38
ITEM: BOX BOUNDS pp pp pp
-2.6905500000000000e+01 2.6905500000000000e+01
-2.6905500000000000e+01 2.6905500000000000e+01
-2.6905500000000000e+01 2.6905500000000000e+01
ITEM: ATOMS id mol type x y z
27 3 2 -21.194 -0.666375 -13.7605
26 3 2 -19.6323 -1.14332 -15.4651
21 3 3 -21.2557 -0.204913 -14.5899
20 3 1 -19.9974 -0.149785 -15.1217
25 3 2 -19.2556 0.172337 -14.3784
19 3 1 -19.8816 0.753332 -16.4093
23 3 2 -18.835 0.638553 -16.8649
28 3 2 -19.2021 2.45515 -15.6055
22 3 3 -20.0154 2.12177 -16.0901
24 3 2 -20.6049 0.428302 -17.1862
15 2 2 -17.1945 6.32424 -14.4743
12 2 3 -16.6517 8.98058 -14.0995
18 2 2 -16.0122 9.05682 -14.7919
37 4 2 6.54631 -15.9956 -12.5987
31 4 3 6.21128 -15.4038 -11.9637
30 4 1 6.36661 -14.0584 -12.4675
36 4 2 5.65999 -14.0098 -13.3598
35 4 2 7.48338 -13.9285 -12.7403
34 4 2 5.08656 -13.047 -10.8972
29 4 1 6.10136 -13.0068 -11.3542
33 4 2 6.24754 -12.0104 -11.7504
32 4 3 7.03844 -13.0831 -10.2461
38 4 2 7.95195 -12.9466 -10.6728
11 2 1 -16.2702 7.91145 -13.2969
17 2 2 -17.0417 7.80835 -12.4694
10 2 1 -16.2039 6.5796 -14.058
13 2 2 -15.4536 6.56753 -14.8314
16 2 2 -15.3013 8.17954 -12.8487
14 2 2 -15.8697 5.86244 -13.2981
8 1 2 -22.6451 -6.9748 19.7341
5 1 2 -24.9185 -7.54042 20.4992
6 1 2 -23.7033 -8.88908 20.4947
1 1 1 -23.998 -7.95687 20.9398
2 1 1 -22.848 -6.99413 20.7912
4 1 2 -24.2254 -8.19396 22.007
3 1 3 -21.7778 -7.40466 21.6171
9 1 2 -22.2103 -7.46744 22.5325
7 1 2 -23.191 -6.02571 21.2125
ITEM: TIMESTEP
14600
ITEM: NUMBER OF ATOMS
38
ITEM: BOX BOUNDS pp pp pp
-2.6905500000000000e+01 2.6905500000000000e+01
-2.6905500000000000e+01 2.6905500000000000e+01
-2.6905500000000000e+01 2.6905500000000000e+01
ITEM: ATOMS id mol type x y z
27 3 2 -21.7562 -0.115945 -13.7271
26 3 2 -19.7648 -1.15685 -14.639
21 3 3 -21.5285 -0.0233093 -14.6556
20 3 1 -20.1327 -0.0935155 -14.7461
25 3 2 -19.6432 0.445736 -13.8965
19 3 1 -19.6442 0.451011 -16.0996
23 3 2 -18.4901 0.423736 -16.09
28 3 2 -19.8131 2.30767 -15.5178
22 3 3 -20.1722 1.71861 -16.2764
24 3 2 -20.0063 -0.14797 -16.8944
15 2 2 -16.2376 6.79109 -15.0753
12 2 3 -16.5172 9.06492 -13.8526
18 2 2 -15.5781 9.21139 -14.1762
37 4 2 6.71139 -15.9877 -12.8708
31 4 3 6.43166 -15.3085 -12.1288
30 4 1 6.58856 -14.045 -12.7799
36 4 2 5.76493 -13.9439 -13.6206
35 4 2 7.67693 -13.8735 -13.1793
34 4 2 5.22609 -13.0905 -11.4727
29 4 1 6.25368 -12.935 -11.7895
33 4 2 6.30415 -11.8542 -12.1996
32 4 3 7.05239 -13.0481 -10.675
38 4 2 7.91962 -12.7541 -10.9613
11 2 1 -16.4647 7.84947 -13.1894
17 2 2 -17.4654 7.36894 -13.0071
10 2 1 -15.7551 6.79844 -14.0907
13 2 2 -14.6757 7.0684 -14.1808
16 2 2 -15.9732 7.86325 -12.1797
14 2 2 -15.9883 5.81299 -13.5891
8 1 2 -23.2022 -6.43766 20.168
5 1 2 -25.1024 -7.67733 21.3391
6 1 2 -23.7292 -8.72862 20.8945
1 1 1 -23.9938 -7.96045 21.5482
2 1 1 -23.1349 -6.77051 21.2585
4 1 2 -23.9476 -8.26117 22.5373
3 1 3 -21.7813 -7.10353 21.4867
9 1 2 -21.8218 -7.32366 22.4084
7 1 2 -23.4351 -5.85005 21.8277
ITEM: TIMESTEP
14800
ITEM: NUMBER OF ATOMS
38
ITEM: BOX BOUNDS pp pp pp
-2.6905500000000000e+01 2.6905500000000000e+01
-2.6905500000000000e+01 2.6905500000000000e+01
-2.6905500000000000e+01 2.6905500000000000e+01
ITEM: ATOMS id mol type x y z
27 3 2 -21.4277 -0.989309 -13.9413
26 3 2 -19.4074 -1.26141 -15.1079
21 3 3 -21.3461 -0.393186 -14.7737
20 3 1 -19.9253 -0.265308 -14.9899
25 3 2 -19.5134 0.239291 -14.12
19 3 1 -19.6016 0.443896 -16.3169
23 3 2 -18.5232 0.364289 -16.4169
28 3 2 -19.6699 2.38571 -15.6322
22 3 3 -20.0344 1.82115 -16.3409
24 3 2 -20.0835 -0.141556 -17.1324
15 2 2 -16.5592 6.99042 -14.9013
12 2 3 -16.5316 9.29129 -13.6928
18 2 2 -15.6826 9.74018 -13.712
37 4 2 6.71588 -15.5592 -13.8078
31 4 3 6.52964 -15.0682 -12.9689
30 4 1 6.44973 -13.7328 -13.2368
36 4 2 5.8081 -13.5853 -14.0947
35 4 2 7.50147 -13.3211 -13.4306
34 4 2 4.87712 -13.2212 -11.83
29 4 1 5.98174 -12.958 -11.9801
33 4 2 5.9984 -11.8342 -12.1921
32 4 3 6.74776 -13.1553 -10.8548
38 4 2 7.74149 -12.8651 -10.987
11 2 1 -16.3604 7.99784 -13.0637
17 2 2 -17.3229 7.68401 -12.6528
10 2 1 -15.8096 7.05488 -14.0933
13 2 2 -14.8512 7.41789 -14.5052
16 2 2 -15.672 8.13189 -12.1651
14 2 2 -15.6584 5.99708 -13.6679
8 1 2 -23.2592 -6.54336 20.3332
5 1 2 -24.7608 -8.29054 21.2125
6 1 2 -23.1209 -9.00007 20.6962
1 1 1 -23.6585 -8.37055 21.4246
2 1 1 -23.0625 -6.99543 21.3175
4 1 2 -23.5663 -8.86297 22.3416
3 1 3 -21.655 -7.03101 21.3545
9 1 2 -21.3626 -7.47774 22.259
7 1 2 -23.4403 -6.39251 22.2138
ITEM: TIMESTEP
15000
ITEM: NUMBER OF ATOMS
38
ITEM: BOX BOUNDS pp pp pp
-2.6905500000000000e+01 2.6905500000000000e+01
-2.6905500000000000e+01 2.6905500000000000e+01
-2.6905500000000000e+01 2.6905500000000000e+01
ITEM: ATOMS id mol type x y z
27 3 2 -21.075 -0.998058 -13.8623
26 3 2 -20.0067 -1.59639 -15.7343
21 3 3 -21.0255 -0.330112 -14.5031
20 3 1 -19.9106 -0.587908 -15.2823
25 3 2 -18.9624 -0.567076 -14.6561
19 3 1 -19.7528 0.332331 -16.5345
23 3 2 -18.93 -0.0369604 -17.1149
28 3 2 -18.9689 1.80703 -15.5861
22 3 3 -19.7079 1.70764 -16.2624
24 3 2 -20.5829 0.128519 -17.2277
15 2 2 -15.8454 7.74475 -15.5564
12 2 3 -16.6616 9.27701 -13.5609
18 2 2 -15.8559 9.44948 -13.025
37 4 2 6.92259 -15.6262 -13.4571
31 4 3 6.3946 -14.9886 -12.8699
30 4 1 6.9037 -13.6928 -13.1028
36 4 2 6.69468 -13.4303 -14.159
35 4 2 7.98774 -13.6738 -13.0621
34 4 2 5.11601 -12.7133 -12.3932
29 4 1 6.27347 -12.6359 -12.1441
33 4 2 6.5682 -11.6122 -12.3343
32 4 3 6.43158 -12.8232 -10.7623
38 4 2 7.39798 -12.8137 -10.6403
11 2 1 -16.8075 7.86759 -13.6691
17 2 2 -17.812 7.64021 -14.1143
10 2 1 -15.7506 7.25201 -14.5654
13 2 2 -14.7093 7.43539 -14.1644
16 2 2 -16.8142 7.38385 -12.6927
14 2 2 -15.9728 6.2001 -14.7077
8 1 2 -23.4285 -6.21042 20.9349
5 1 2 -24.7237 -8.09031 21.3053
6 1 2 -23.6017 -8.49144 20.0852
1 1 1 -23.6978 -8.31985 21.1707
2 1 1 -23.0074 -7.04367 21.4957
4 1 2 -23.4415 -9.24928 21.7454
3 1 3 -21.6318 -7.11739 21.0975
9 1 2 -21.1501 -7.81334 21.6341
7 1 2 -23.098 -6.83623 22.6215
ITEM: TIMESTEP
15200
ITEM: NUMBER OF ATOMS
38
ITEM: BOX BOUNDS pp pp pp
-2.6905500000000000e+01 2.6905500000000000e+01
-2.6905500000000000e+01 2.6905500000000000e+01
-2.6905500000000000e+01 2.6905500000000000e+01
ITEM: ATOMS id mol type x y z
37 4 2 6.83994 -15.5555 -13.6125
36 4 2 7.33296 -13.3076 -14.1558
27 3 2 -21.5186 -0.715376 -13.9118
21 3 3 -21.0783 -0.0943795 -14.5402
26 3 2 -20.8305 -1.52568 -15.9545
20 3 1 -20.2464 -0.768887 -15.3912
25 3 2 -19.3774 -1.25231 -14.8768
23 3 2 -19.1462 -0.492921 -17.2814
24 3 2 -20.5665 0.503503 -17.0565
19 3 1 -19.685 0.093173 -16.5244
28 3 2 -18.1422 0.920745 -15.6343
22 3 3 -18.9379 1.2575 -16.1971
14 2 2 -16.6114 6.54075 -14.5681
15 2 2 -15.9685 7.90574 -15.4873
12 2 3 -16.3934 9.74761 -13.589
11 2 1 -16.973 8.46536 -13.6788
17 2 2 -17.9871 8.53953 -14.0705
10 2 1 -16.0953 7.46839 -14.5021
13 2 2 -15.0635 7.39004 -14.0585
31 4 3 6.4407 -14.8041 -13.0991
30 4 1 7.26425 -13.7093 -13.103
35 4 2 8.30654 -13.9347 -12.7751
34 4 2 5.63934 -12.3357 -12.5108
29 4 1 6.67333 -12.5601 -12.2514
32 4 3 6.7338 -12.878 -10.8503
33 4 2 7.23005 -11.6184 -12.4689
38 4 2 7.64239 -13.0582 -10.6282
18 2 2 -15.4842 9.70518 -13.2248
16 2 2 -16.9479 8.0341 -12.6802
6 1 2 -23.7308 -9.12539 20.2661
5 1 2 -25.0113 -8.27843 21.2435
1 1 1 -23.9263 -8.51902 21.1878
2 1 1 -23.1661 -7.16256 21.2438
4 1 2 -23.7097 -9.13327 22.1161
3 1 3 -21.7621 -7.27295 21.0598
9 1 2 -21.3947 -7.75601 21.7892
7 1 2 -23.4019 -6.63435 22.1532
8 1 2 -23.4979 -6.53515 20.3086
ITEM: TIMESTEP
15400
ITEM: NUMBER OF ATOMS
38
ITEM: BOX BOUNDS pp pp pp
-2.6905500000000000e+01 2.6905500000000000e+01
-2.6905500000000000e+01 2.6905500000000000e+01
-2.6905500000000000e+01 2.6905500000000000e+01
ITEM: ATOMS id mol type x y z
37 4 2 6.11292 -15.2436 -13.8035
36 4 2 6.69003 -13.2327 -14.2941
27 3 2 -21.2056 -0.523648 -13.6399
21 3 3 -20.9467 0.049882 -14.3473
26 3 2 -21.0421 -1.35548 -15.888
20 3 1 -20.3392 -0.713385 -15.4031
25 3 2 -19.5994 -1.37279 -14.9536
23 3 2 -19.2834 -0.307278 -17.2443
24 3 2 -20.6348 0.79092 -16.8433
19 3 1 -19.7644 0.212126 -16.4047
28 3 2 -18.1365 0.686717 -15.5361
22 3 3 -18.8967 1.16299 -15.8721
14 2 2 -16.769 7.035 -15.2762
15 2 2 -16.4901 8.71618 -15.7953
12 2 3 -16.4787 9.67544 -13.2013
11 2 1 -17.0789 8.5103 -13.7331
17 2 2 -18.1401 8.72497 -13.9592
10 2 1 -16.3091 7.97007 -15.0007
13 2 2 -15.2117 7.7939 -14.6902
31 4 3 5.94941 -14.6146 -13.109
30 4 1 6.86012 -13.6051 -13.256
35 4 2 7.9027 -13.9696 -13.0531
34 4 2 5.58948 -12.1205 -12.2797
29 4 1 6.64379 -12.4614 -12.1846
32 4 3 6.92966 -12.788 -10.801
33 4 2 7.30173 -11.5935 -12.5001
38 4 2 7.82487 -13.2218 -10.7909
18 2 2 -15.6149 9.44708 -12.8667
16 2 2 -17.0825 7.6785 -12.9091
6 1 2 -23.917 -8.23903 19.9376
5 1 2 -24.7115 -8.80357 21.4199
1 1 1 -23.7906 -8.41932 21.0316
2 1 1 -23.3465 -7.1753 21.7305
4 1 2 -22.9882 -9.19452 21.2798
3 1 3 -22.135 -6.74323 21.2194
9 1 2 -21.5826 -7.47413 21.5433
7 1 2 -23.2977 -7.37458 22.8808
8 1 2 -23.9992 -6.37981 21.4551
ITEM: TIMESTEP
15600
ITEM: NUMBER OF ATOMS
38
ITEM: BOX BOUNDS pp pp pp
-2.6905500000000000e+01 2.6905500000000000e+01
-2.6905500000000000e+01 2.6905500000000000e+01
-2.6905500000000000e+01 2.6905500000000000e+01
ITEM: ATOMS id mol type x y z
37 4 2 6.17648 -15.1168 -14.0204
36 4 2 6.16893 -12.8516 -14.1218
27 3 2 -20.8672 -0.882465 -13.6533
21 3 3 -20.562 -0.219516 -14.3447
26 3 2 -20.7286 -1.71019 -15.6735
20 3 1 -20.1116 -0.859081 -15.4506
25 3 2 -19.0662 -1.18496 -15.2134
23 3 2 -19.1923 -0.408268 -17.4602
24 3 2 -20.8627 0.293976 -17.0974
19 3 1 -19.8843 0.0684405 -16.6985
28 3 2 -18.2814 0.941284 -16.1293
22 3 3 -19.2212 1.19399 -16.3286
14 2 2 -16.1827 7.51972 -15.3837
15 2 2 -16.292 9.27312 -15.7618
12 2 3 -16.7597 9.87538 -12.973
11 2 1 -16.9103 8.67082 -13.6973
17 2 2 -17.9547 8.7156 -14.0949
10 2 1 -16.0357 8.55473 -14.9782
13 2 2 -14.9382 8.59573 -14.8017
31 4 3 5.91559 -14.6218 -13.1751
30 4 1 6.58106 -13.3659 -13.2711
35 4 2 7.66513 -13.5185 -13.233
34 4 2 5.24926 -12.2866 -11.9659
29 4 1 6.31225 -12.5223 -12.0069
32 4 3 6.66271 -13.171 -10.8001
33 4 2 6.76146 -11.5503 -12.1387
38 4 2 7.66869 -13.3056 -10.8533
18 2 2 -15.8488 9.81467 -12.4915
16 2 2 -16.9241 7.77917 -13.0291
6 1 2 -23.6848 -8.33611 20.0568
5 1 2 -24.7412 -8.51733 21.4836
1 1 1 -23.6895 -8.28193 21.1416
2 1 1 -23.167 -6.92531 21.6627
4 1 2 -22.9969 -9.10393 21.5136
3 1 3 -21.8874 -6.42641 21.2399
9 1 2 -21.1448 -6.90733 21.7015
7 1 2 -23.1138 -6.97789 22.8023
8 1 2 -23.8549 -6.14811 21.3751
ITEM: TIMESTEP
15800
ITEM: NUMBER OF ATOMS
38
ITEM: BOX BOUNDS pp pp pp
-2.6905500000000000e+01 2.6905500000000000e+01
-2.6905500000000000e+01 2.6905500000000000e+01
-2.6905500000000000e+01 2.6905500000000000e+01
ITEM: ATOMS id mol type x y z
37 4 2 5.78813 -14.9975 -13.8989
36 4 2 5.54057 -12.7051 -14.2741
27 3 2 -20.504 -0.869517 -13.518
21 3 3 -20.5958 -0.281012 -14.287
26 3 2 -20.8417 -1.89073 -15.796
20 3 1 -20.1893 -0.927114 -15.4991
25 3 2 -19.1504 -1.24606 -15.5012
23 3 2 -20.0417 -0.408702 -17.5956
24 3 2 -21.498 0.347684 -16.741
19 3 1 -20.3972 0.0937379 -16.6205
28 3 2 -18.88 1.12118 -16.242
22 3 3 -19.8235 1.3734 -16.414
14 2 2 -15.6735 7.74859 -15.6393
15 2 2 -15.1966 9.39842 -15.5205
12 2 3 -16.4484 9.70044 -12.9953
11 2 1 -16.7616 8.75583 -13.9951
17 2 2 -17.5827 9.19055 -14.5736
10 2 1 -15.4956 8.50913 -14.9078
13 2 2 -14.685 8.00195 -14.3585
31 4 3 5.76433 -14.3976 -13.1266
30 4 1 6.18846 -13.1437 -13.4884
35 4 2 7.22474 -13.1502 -13.8321
34 4 2 5.04064 -12.2915 -11.9989
29 4 1 6.1168 -12.2594 -12.2705
32 4 3 6.87491 -12.6844 -11.1518
33 4 2 6.43117 -11.221 -12.5671
38 4 2 7.80459 -12.6787 -11.3829
18 2 2 -15.6793 9.42422 -12.4151
16 2 2 -17.0933 7.77055 -13.5538
6 1 2 -24.2678 -8.3199 20.7124
5 1 2 -23.8549 -9.29965 22.2266
1 1 1 -23.4788 -8.60965 21.3726
2 1 1 -22.9589 -7.38682 22.0814
4 1 2 -22.6176 -9.09293 20.9064
3 1 3 -22.4686 -6.41149 21.1583
9 1 2 -21.6173 -6.75923 20.7333
7 1 2 -22.2142 -7.69201 22.9051
8 1 2 -23.8664 -6.93264 22.5913
ITEM: TIMESTEP
16000
ITEM: NUMBER OF ATOMS
38
ITEM: BOX BOUNDS pp pp pp
-2.6905500000000000e+01 2.6905500000000000e+01
-2.6905500000000000e+01 2.6905500000000000e+01
-2.6905500000000000e+01 2.6905500000000000e+01
ITEM: ATOMS id mol type x y z
37 4 2 5.66305 -15.422 -13.8202
36 4 2 5.02191 -13.1897 -14.0273
27 3 2 -20.8281 -0.38457 -13.3599
21 3 3 -21.0306 -0.0572911 -14.2845
26 3 2 -20.5323 -1.74149 -15.1716
20 3 1 -20.2064 -0.703885 -15.2167
25 3 2 -19.1007 -0.74207 -14.9837
23 3 2 -19.7741 -0.64235 -17.3331
24 3 2 -21.4686 -0.270732 -16.9538
19 3 1 -20.4833 -0.108626 -16.5916
28 3 2 -19.2252 1.41056 -16.605
22 3 3 -20.2428 1.30951 -16.7382
14 2 2 -15.4819 7.92988 -16.0402
15 2 2 -14.9135 9.53365 -15.4391
12 2 3 -16.3452 9.5544 -13.195
11 2 1 -16.6181 8.63375 -14.3181
17 2 2 -17.4863 9.04242 -14.8903
10 2 1 -15.2572 8.53457 -15.1553
13 2 2 -14.4577 7.94981 -14.5544
31 4 3 5.61782 -14.8957 -12.943
30 4 1 5.77107 -13.4954 -13.2167
35 4 2 6.79898 -13.2482 -13.5828
34 4 2 4.33378 -12.6215 -11.7795
29 4 1 5.44611 -12.6645 -12.0321
32 4 3 6.21851 -12.9606 -10.9017
33 4 2 5.71002 -11.6068 -12.35
38 4 2 7.14473 -12.9381 -11.2082
18 2 2 -15.6691 9.16054 -12.5487
16 2 2 -16.9513 7.62877 -13.9275
6 1 2 -24.198 -8.38547 20.3228
5 1 2 -24.3781 -8.95188 22.0856
1 1 1 -23.7384 -8.61029 21.3148
2 1 1 -23.0375 -7.28143 21.7691
4 1 2 -23.0182 -9.38132 21.2281
3 1 3 -21.9108 -6.86233 21.0167
9 1 2 -21.3048 -7.62209 20.8933
7 1 2 -22.5839 -7.45963 22.7574
8 1 2 -23.7871 -6.47721 21.8369
ITEM: TIMESTEP
16200
ITEM: NUMBER OF ATOMS
38
ITEM: BOX BOUNDS pp pp pp
-2.6905500000000000e+01 2.6905500000000000e+01
-2.6905500000000000e+01 2.6905500000000000e+01
-2.6905500000000000e+01 2.6905500000000000e+01
ITEM: ATOMS id mol type x y z
37 4 2 6.1601 -15.3257 -13.5829
36 4 2 5.62487 -13.2945 -14.1861
21 3 3 -21.1235 -0.214523 -14.5382
24 3 2 -21.1072 -0.882832 -17.0175
19 3 1 -20.1755 -0.406845 -16.629
26 3 2 -19.8729 -1.73013 -14.876
20 3 1 -19.9549 -0.674522 -15.1114
25 3 2 -19.022 -0.105555 -14.8015
23 3 2 -19.2829 -0.818297 -17.1513
22 3 3 -20.2604 0.939741 -16.9531
28 3 2 -19.5047 1.44664 -16.6041
14 2 2 -15.5847 8.04178 -15.9679
15 2 2 -15.5665 9.8483 -16.0332
11 2 1 -16.5719 8.98744 -14.2042
17 2 2 -17.6346 9.09678 -14.6576
10 2 1 -15.5043 8.99282 -15.3544
13 2 2 -14.5384 9.077 -14.8592
16 2 2 -16.4695 8.0684 -13.6094
31 4 3 6.02733 -14.7864 -12.8281
30 4 1 6.22467 -13.4663 -13.2189
34 4 2 4.51633 -12.795 -11.9926
29 4 1 5.6228 -12.5746 -12.1421
32 4 3 6.30264 -12.8272 -10.859
33 4 2 5.65258 -11.48 -12.4078
35 4 2 7.25609 -13.1522 -13.2591
38 4 2 7.25132 -12.7689 -10.9377
27 3 2 -21.1414 -0.268968 -13.5612
12 2 3 -16.4128 10.0818 -13.3035
18 2 2 -15.4975 9.88095 -12.9432
6 1 2 -24.0351 -8.609 20.2987
5 1 2 -24.2244 -9.16645 21.9388
1 1 1 -23.4614 -8.8214 21.2022
2 1 1 -22.7784 -7.54068 21.6595
4 1 2 -22.6844 -9.61071 21.0839
3 1 3 -21.8164 -7.01524 20.7733
9 1 2 -21.1388 -7.7621 20.6543
7 1 2 -22.3777 -7.71788 22.6771
8 1 2 -23.548 -6.76811 21.7524
ITEM: TIMESTEP
16400
ITEM: NUMBER OF ATOMS
38
ITEM: BOX BOUNDS pp pp pp
-2.6905500000000000e+01 2.6905500000000000e+01
-2.6905500000000000e+01 2.6905500000000000e+01
-2.6905500000000000e+01 2.6905500000000000e+01
ITEM: ATOMS id mol type x y z
37 4 2 7.10505 -15.2323 -13.6149
36 4 2 6.00434 -13.2919 -14.2984
21 3 3 -20.9007 -0.282342 -14.534
24 3 2 -20.9424 -1.18703 -16.8585
19 3 1 -20.0219 -0.630774 -16.6995
26 3 2 -19.5403 -1.7792 -14.9433
20 3 1 -19.7649 -0.692336 -15.2424
25 3 2 -18.8607 -0.0878872 -14.9318
23 3 2 -19.2353 -1.0427 -17.3245
22 3 3 -20.3257 0.732224 -17.0574
28 3 2 -19.5311 1.23504 -16.8602
14 2 2 -15.793 8.26678 -15.9668
15 2 2 -15.3507 10.0588 -15.5567
11 2 1 -16.5723 9.05002 -14.1276
17 2 2 -17.4615 9.25378 -14.8368
10 2 1 -15.4843 8.98745 -15.1598
13 2 2 -14.5223 8.64011 -14.6559
16 2 2 -16.7726 8.12467 -13.6501
31 4 3 6.4584 -14.9335 -12.9753
30 4 1 6.38474 -13.5078 -13.2509
34 4 2 4.48978 -13.4327 -12.1974
29 4 1 5.46638 -12.8503 -12.2481
32 4 3 5.99296 -12.9032 -11.0068
33 4 2 5.33838 -11.8109 -12.4754
35 4 2 7.32557 -13.0701 -13.2503
38 4 2 6.89292 -12.4554 -11.0135
27 3 2 -20.6604 -0.205543 -13.5495
12 2 3 -16.3564 10.1918 -13.2687
18 2 2 -15.605 9.93812 -12.7342
6 1 2 -23.1225 -8.64759 19.8558
5 1 2 -23.5171 -9.36801 21.432
1 1 1 -22.7944 -8.76058 20.8627
2 1 1 -22.6445 -7.37904 21.5334
4 1 2 -21.8679 -9.24383 20.8766
3 1 3 -21.6863 -6.60147 20.9121
9 1 2 -20.8384 -7.01349 21.001
7 1 2 -22.3929 -7.58365 22.5899
8 1 2 -23.5963 -6.77477 21.5821
ITEM: TIMESTEP
16600
ITEM: NUMBER OF ATOMS
38
ITEM: BOX BOUNDS pp pp pp
-2.6905500000000000e+01 2.6905500000000000e+01
-2.6905500000000000e+01 2.6905500000000000e+01
-2.6905500000000000e+01 2.6905500000000000e+01
ITEM: ATOMS id mol type x y z
37 4 2 7.22033 -15.1811 -13.9151
36 4 2 5.75821 -13.4713 -14.4323
21 3 3 -21.1227 -0.327974 -14.5653
24 3 2 -21.3756 -0.701615 -17.3137
19 3 1 -20.3617 -0.408881 -16.8886
26 3 2 -20.409 -2.01144 -15.2259
20 3 1 -20.1979 -0.927988 -15.372
25 3 2 -19.0898 -0.719214 -15.0377
23 3 2 -19.5823 -0.895949 -17.5336
22 3 3 -20.2523 0.979895 -16.9726
28 3 2 -19.3588 1.27281 -16.6167
14 2 2 -16.1515 7.78436 -15.9265
15 2 2 -15.119 9.25327 -15.6277
11 2 1 -16.6459 8.90337 -14.08
17 2 2 -17.3444 9.53423 -14.7031
10 2 1 -15.6564 8.38803 -15.1546
13 2 2 -14.9373 7.75104 -14.6779
16 2 2 -17.2344 8.07461 -13.7063
31 4 3 6.6301 -14.8542 -13.162
30 4 1 6.36701 -13.5498 -13.4897
34 4 2 4.62828 -13.5325 -12.1727
29 4 1 5.54785 -12.943 -12.2912
32 4 3 6.22286 -12.801 -11.0891
33 4 2 5.14795 -11.9147 -12.5729
35 4 2 7.28576 -12.9744 -13.7039
38 4 2 6.99837 -12.2803 -11.2319
27 3 2 -21.1762 -0.80851 -13.6836
12 2 3 -16.1332 9.69406 -13.0696
18 2 2 -15.5244 9.13543 -12.5214
6 1 2 -23.3512 -8.5144 19.5019
5 1 2 -23.6976 -9.36898 21.1199
1 1 1 -23.0485 -8.67476 20.5167
2 1 1 -22.7927 -7.4379 21.3811
4 1 2 -22.0041 -9.04835 20.354
3 1 3 -22.0484 -6.53281 20.7073
9 1 2 -21.1512 -6.88909 20.5572
7 1 2 -22.3619 -7.72101 22.3396
8 1 2 -23.7318 -6.92908 21.5687
ITEM: TIMESTEP
16800
ITEM: NUMBER OF ATOMS
38
ITEM: BOX BOUNDS pp pp pp
-2.6905500000000000e+01 2.6905500000000000e+01
-2.6905500000000000e+01 2.6905500000000000e+01
-2.6905500000000000e+01 2.6905500000000000e+01
ITEM: ATOMS id mol type x y z
37 4 2 6.8687 -15.9365 -13.9432
36 4 2 5.33907 -14.3102 -14.4279
21 3 3 -20.9849 -0.208201 -15.0475
24 3 2 -21.3726 -0.648139 -17.5567
19 3 1 -20.3154 -0.566533 -17.3393
26 3 2 -20.3523 -2.13736 -15.7064
20 3 1 -20.1002 -1.05387 -15.8348
25 3 2 -19.0359 -0.923005 -15.5442
23 3 2 -19.7587 -1.23374 -18.0767
22 3 3 -19.942 0.742759 -17.4968
28 3 2 -18.9546 0.806139 -17.3298
14 2 2 -16.2115 7.85819 -15.6475
15 2 2 -15.3899 9.41121 -15.562
11 2 1 -16.8451 8.92418 -14.02
17 2 2 -17.6435 9.48518 -14.6024
10 2 1 -15.7697 8.5315 -14.9466
13 2 2 -14.9615 7.99219 -14.4679
16 2 2 -17.2854 8.02882 -13.5329
31 4 3 6.71662 -15.2728 -13.2394
30 4 1 6.08061 -14.1061 -13.668
34 4 2 4.4417 -13.9982 -12.0902
29 4 1 5.25592 -13.3422 -12.5484
32 4 3 5.997 -12.8191 -11.419
33 4 2 4.8337 -12.5227 -13.074
35 4 2 6.82056 -13.4554 -14.0688
38 4 2 6.68007 -12.1816 -11.7232
27 3 2 -20.6668 -0.298887 -14.0832
12 2 3 -16.4342 9.93402 -13.1159
18 2 2 -15.7058 9.46229 -12.6441
6 1 2 -23.4884 -8.71597 19.1716
5 1 2 -24.1425 -9.36984 20.7663
1 1 1 -23.2527 -8.89385 20.2318
2 1 1 -23.046 -7.58004 21.0068
4 1 2 -22.3631 -9.61873 20.3772
3 1 3 -21.9742 -6.81633 20.4805
9 1 2 -21.1339 -7.38061 20.5636
7 1 2 -22.8347 -7.87039 22.0987
8 1 2 -23.9544 -6.92671 20.8586
ITEM: TIMESTEP
17000
ITEM: NUMBER OF ATOMS
38
ITEM: BOX BOUNDS pp pp pp
-2.6905500000000000e+01 2.6905500000000000e+01
-2.6905500000000000e+01 2.6905500000000000e+01
-2.6905500000000000e+01 2.6905500000000000e+01
ITEM: ATOMS id mol type x y z
37 4 2 7.23829 -15.471 -13.6349
36 4 2 5.41157 -14.5612 -14.2381
21 3 3 -20.7908 -0.293973 -14.9419
24 3 2 -21.5159 -0.213603 -17.6925
19 3 1 -20.4763 -0.337989 -17.3985
26 3 2 -20.7659 -2.01518 -16.1041
20 3 1 -20.3213 -1.0482 -16.0871
25 3 2 -19.2494 -1.27146 -15.8736
23 3 2 -20.0204 -0.970015 -18.19
22 3 3 -19.7974 0.914777 -17.2857
28 3 2 -18.9144 0.765459 -16.8829
14 2 2 -15.8663 7.92549 -15.8003
15 2 2 -14.7839 9.2445 -15.0468
11 2 1 -16.7485 8.89154 -14.1686
17 2 2 -17.3093 9.54016 -14.9042
10 2 1 -15.4666 8.41444 -14.8696
13 2 2 -14.9461 7.57615 -14.3071
16 2 2 -17.5042 8.03567 -14.0063
31 4 3 6.77558 -15.0502 -12.9026
30 4 1 6.02292 -14.0343 -13.5139
34 4 2 4.45257 -14.3169 -12.0811
29 4 1 5.06268 -13.4657 -12.5278
32 4 3 5.75353 -12.7721 -11.558
33 4 2 4.38584 -12.7971 -13.1133
35 4 2 6.64826 -13.2229 -14.0186
38 4 2 6.09574 -11.9664 -11.966
27 3 2 -20.6394 -0.891323 -14.1854
12 2 3 -16.522 9.63446 -13.0168
18 2 2 -16.1035 9.13674 -12.2794
6 1 2 -23.7563 -8.6169 19.2091
5 1 2 -24.1125 -9.61952 20.6094
1 1 1 -23.3291 -9.09885 20.1188
2 1 1 -22.9669 -7.9656 20.9892
4 1 2 -22.4737 -9.8014 19.9523
3 1 3 -21.9301 -7.15354 20.5402
9 1 2 -21.1553 -7.7332 20.3763
7 1 2 -22.6729 -8.4913 21.9015
8 1 2 -23.8686 -7.43704 21.2934
ITEM: TIMESTEP
17200
ITEM: NUMBER OF ATOMS
38
ITEM: BOX BOUNDS pp pp pp
-2.6905500000000000e+01 2.6905500000000000e+01
-2.6905500000000000e+01 2.6905500000000000e+01
-2.6905500000000000e+01 2.6905500000000000e+01
ITEM: ATOMS id mol type x y z
36 4 2 5.65151 -14.4952 -14.2109
35 4 2 6.7959 -13.1559 -13.5318
21 3 3 -20.6443 -0.620038 -14.946
24 3 2 -21.5761 -0.236818 -17.3949
19 3 1 -20.5218 -0.447475 -17.3369
26 3 2 -20.9625 -2.24183 -16.1389
20 3 1 -20.2489 -1.35355 -16.1372
27 3 2 -20.6945 -1.33334 -14.1858
25 3 2 -19.1527 -1.74142 -16.0436
23 3 2 -20.1822 -1.07179 -18.241
22 3 3 -19.7846 0.737783 -17.2787
28 3 2 -18.9021 0.487454 -17.0787
14 2 2 -15.4958 7.27935 -15.5722
15 2 2 -16.1512 8.96365 -15.8015
11 2 1 -16.5626 7.97955 -13.8221
17 2 2 -17.4444 7.53574 -14.2734
10 2 1 -15.6835 8.27535 -15.0589
13 2 2 -14.6577 8.7751 -14.7568
30 4 1 6.064 -14.0102 -13.2893
34 4 2 4.28247 -14.3432 -12.1344
29 4 1 4.94244 -13.4992 -12.3442
37 4 2 7.40588 -15.4046 -13.3998
31 4 3 6.79194 -15.0731 -12.7094
32 4 3 5.47149 -12.9022 -11.1894
33 4 2 4.28358 -12.7789 -12.931
38 4 2 6.06366 -12.1913 -11.4634
16 2 2 -16.0613 7.21882 -13.2372
12 2 3 -16.8186 9.15048 -13.0135
18 2 2 -15.9191 9.44154 -12.6987
6 1 2 -23.5722 -8.96059 19.1098
1 1 1 -23.3175 -9.15801 20.1947
5 1 2 -24.272 -9.2412 20.6868
2 1 1 -22.498 -7.99188 20.7616
4 1 2 -22.7357 -10.0985 20.2844
3 1 3 -21.3605 -7.73564 20.0894
9 1 2 -20.6995 -8.46513 20.2114
7 1 2 -22.2813 -8.08655 21.8571
8 1 2 -23.0429 -7.05038 20.6733
ITEM: TIMESTEP
17400
ITEM: NUMBER OF ATOMS
38
ITEM: BOX BOUNDS pp pp pp
-2.6905500000000000e+01 2.6905500000000000e+01
-2.6905500000000000e+01 2.6905500000000000e+01
-2.6905500000000000e+01 2.6905500000000000e+01
ITEM: ATOMS id mol type x y z
36 4 2 6.58923 -13.856 -14.1503
35 4 2 7.45369 -13.0965 -12.8488
21 3 3 -20.8412 -0.739931 -15.1106
24 3 2 -21.7885 -0.289287 -17.6265
19 3 1 -20.7498 -0.570615 -17.5964
26 3 2 -21.3568 -2.33129 -16.3251
20 3 1 -20.5902 -1.51788 -16.3132
27 3 2 -20.7824 -1.45449 -14.393
25 3 2 -19.6082 -2.03809 -16.3151
23 3 2 -20.5411 -1.13496 -18.4803
22 3 3 -19.9538 0.57077 -17.5232
28 3 2 -19.0255 0.206207 -17.5624
14 2 2 -15.3404 7.86449 -15.4512
15 2 2 -16.3231 9.38119 -15.3397
11 2 1 -16.5814 8.1204 -13.7483
17 2 2 -17.558 7.7173 -14.1277
10 2 1 -15.6413 8.66015 -14.7853
13 2 2 -14.7462 9.08999 -14.2663
30 4 1 6.63448 -13.7802 -13.0322
34 4 2 4.46003 -13.8803 -12.674
29 4 1 5.28583 -13.2214 -12.4604
37 4 2 7.74808 -15.346 -12.8232
31 4 3 6.95396 -14.9786 -12.354
32 4 3 5.41601 -13.0683 -11.0782
33 4 2 5.03445 -12.2347 -12.81
38 4 2 6.0897 -12.4082 -10.9367
16 2 2 -16.1048 7.25814 -13.2829
12 2 3 -16.8765 9.12095 -12.742
18 2 2 -16.0113 9.51758 -12.2983
6 1 2 -23.7629 -9.6743 19.3399
1 1 1 -23.638 -9.53666 20.4146
5 1 2 -24.6472 -9.4105 20.7738
2 1 1 -22.9725 -8.16849 20.5808
4 1 2 -23.11 -10.3461 20.9711
3 1 3 -21.6686 -8.16013 20.1826
9 1 2 -21.0785 -8.66486 20.7567
7 1 2 -22.9848 -7.87699 21.5972
8 1 2 -23.5274 -7.39035 20.0172
ITEM: TIMESTEP
17600
ITEM: NUMBER OF ATOMS
38
ITEM: BOX BOUNDS pp pp pp
-2.6905500000000000e+01 2.6905500000000000e+01
-2.6905500000000000e+01 2.6905500000000000e+01
-2.6905500000000000e+01 2.6905500000000000e+01
ITEM: ATOMS id mol type x y z
36 4 2 6.34824 -13.7599 -14.085
35 4 2 7.26907 -13.1349 -12.6865
21 3 3 -20.6943 -0.905782 -15.1084
24 3 2 -21.8749 0.128376 -17.2884
19 3 1 -20.9743 -0.459343 -17.5136
26 3 2 -21.4389 -2.2749 -16.3442
20 3 1 -20.7573 -1.48612 -16.3547
27 3 2 -20.6693 -1.65383 -14.442
25 3 2 -19.7886 -1.93487 -16.5405
23 3 2 -21.0282 -1.01928 -18.492
22 3 3 -19.9855 0.492337 -17.4845
28 3 2 -19.1375 0.0981287 -17.8302
14 2 2 -15.8115 7.67818 -15.837
15 2 2 -16.6664 9.20056 -15.6196
11 2 1 -16.4022 8.00665 -13.7571
17 2 2 -17.3141 7.37684 -13.9524
10 2 1 -15.8965 8.49833 -15.1283
13 2 2 -14.8976 9.05348 -15.0693
30 4 1 6.40825 -13.8064 -12.9301
34 4 2 4.2439 -13.7777 -12.3787
29 4 1 5.17851 -13.172 -12.2082
37 4 2 7.6597 -15.2845 -12.7732
31 4 3 6.70685 -15.1564 -12.5776
32 4 3 5.39098 -12.9978 -10.8054
33 4 2 5.09354 -12.2001 -12.7342
38 4 2 5.8786 -12.1564 -10.643
16 2 2 -15.6748 7.35088 -13.3042
12 2 3 -16.7682 9.09057 -12.87
18 2 2 -15.9359 9.66858 -12.8234
6 1 2 -23.5561 -10.2913 19.6801
1 1 1 -23.6614 -9.5837 20.5533
5 1 2 -24.7162 -9.5626 20.8019
2 1 1 -23.1346 -8.17439 20.3487
4 1 2 -23.0779 -10.1689 21.2173
3 1 3 -21.7697 -8.09739 20.084
9 1 2 -21.1591 -8.22917 20.919
7 1 2 -23.3005 -7.61063 21.2287
8 1 2 -23.6998 -7.79136 19.4634
ITEM: TIMESTEP
17800
ITEM: NUMBER OF ATOMS
38
ITEM: BOX BOUNDS pp pp pp
-2.6905500000000000e+01 2.6905500000000000e+01
-2.6905500000000000e+01 2.6905500000000000e+01
-2.6905500000000000e+01 2.6905500000000000e+01
ITEM: ATOMS id mol type x y z
36 4 2 6.67901 -13.7228 -13.7982
35 4 2 7.41492 -12.9963 -12.3488
21 3 3 -20.3753 -0.707567 -14.9695
24 3 2 -21.8945 0.240035 -16.906
19 3 1 -20.9296 -0.166214 -17.3045
26 3 2 -21.067 -2.18053 -16.3582
20 3 1 -20.452 -1.28783 -16.2881
27 3 2 -19.9879 -1.46025 -14.4091
25 3 2 -19.4239 -1.51854 -16.6452
23 3 2 -21.1178 -0.657958 -18.2732
22 3 3 -20.0756 0.96259 -17.3771
28 3 2 -19.0909 0.635151 -17.5663
14 2 2 -15.8468 7.88591 -16.1049
15 2 2 -16.2395 9.60067 -15.6085
11 2 1 -16.5027 7.96245 -14.0898
17 2 2 -17.5322 7.7047 -14.3611
10 2 1 -15.7805 8.60014 -15.2813
13 2 2 -14.7217 8.76324 -15.101
30 4 1 6.63831 -13.7364 -12.6744
34 4 2 4.43537 -13.923 -12.3547
29 4 1 5.25029 -13.1773 -12.0488
37 4 2 7.60096 -15.473 -12.5868
31 4 3 6.85853 -14.996 -12.1549
32 4 3 5.06625 -12.9466 -10.665
33 4 2 5.02471 -12.2507 -12.611
38 4 2 5.74081 -12.2744 -10.2805
16 2 2 -16.1382 6.96673 -13.7608
12 2 3 -16.5123 8.78395 -12.9812
18 2 2 -15.5615 8.74586 -12.6741
6 1 2 -24.027 -9.71824 19.2414
1 1 1 -23.98 -9.33406 20.28
5 1 2 -25.0417 -9.35248 20.6953
2 1 1 -23.3162 -8.0068 20.3818
4 1 2 -23.4642 -10.0691 20.9
3 1 3 -22.0069 -8.01328 19.9223
9 1 2 -21.4223 -8.67088 20.294
7 1 2 -23.3203 -7.56887 21.4828
8 1 2 -23.8563 -7.33673 19.7562
ITEM: TIMESTEP
18000
ITEM: NUMBER OF ATOMS
38
ITEM: BOX BOUNDS pp pp pp
-2.6905500000000000e+01 2.6905500000000000e+01
-2.6905500000000000e+01 2.6905500000000000e+01
-2.6905500000000000e+01 2.6905500000000000e+01
ITEM: ATOMS id mol type x y z
36 4 2 5.94684 -14.1812 -13.7166
35 4 2 7.13825 -13.2364 -12.7428
21 3 3 -20.234 -0.519277 -14.7732
24 3 2 -21.7601 -0.0197313 -16.988
19 3 1 -20.6755 -0.196378 -17.1657
26 3 2 -20.7268 -2.12017 -16.0754
20 3 1 -20.1166 -1.13724 -16.0522
27 3 2 -20.2906 -1.15144 -13.9768
25 3 2 -19.0415 -1.40146 -16.2075
23 3 2 -20.4968 -0.617705 -18.148
22 3 3 -20.0016 1.01969 -17.2227
28 3 2 -19.0151 0.795586 -17.5079
14 2 2 -14.9908 7.60958 -15.3495
15 2 2 -16.1268 9.01258 -15.4186
11 2 1 -16.3386 7.60606 -13.7798
17 2 2 -17.0754 6.99911 -14.3142
10 2 1 -15.546 8.35329 -14.7646
13 2 2 -14.8042 9.00808 -14.2509
30 4 1 6.25265 -13.8711 -12.691
34 4 2 4.08167 -13.5017 -12.3176
29 4 1 5.07535 -13.0055 -12.1832
37 4 2 7.27322 -15.563 -12.254
31 4 3 6.45811 -15.0152 -11.9359
32 4 3 5.21869 -12.6114 -10.871
33 4 2 5.11564 -12.1951 -12.8873
38 4 2 6.06722 -12.1271 -10.7813
16 2 2 -15.6744 6.91632 -13.1816
12 2 3 -17.0998 8.44077 -13.0026
18 2 2 -16.5575 9.06831 -12.4255
6 1 2 -24.4602 -9.06383 19.4098
1 1 1 -24.2709 -8.7471 20.4561
5 1 2 -25.245 -8.27267 20.7472
2 1 1 -23.1252 -7.76488 20.5265
4 1 2 -24.1084 -9.65773 21.1101
3 1 3 -22.0006 -8.31807 19.9784
9 1 2 -21.7825 -9.09542 20.5928
7 1 2 -22.9588 -7.43296 21.4799
8 1 2 -23.4181 -6.82218 20.018
ITEM: TIMESTEP
18200
ITEM: NUMBER OF ATOMS
38
ITEM: BOX BOUNDS pp pp pp
-2.6905500000000000e+01 2.6905500000000000e+01
-2.6905500000000000e+01 2.6905500000000000e+01
-2.6905500000000000e+01 2.6905500000000000e+01
ITEM: ATOMS id mol type x y z
36 4 2 5.52316 -15.1629 -13.4752
21 3 3 -20.518 -0.549315 -14.9737
24 3 2 -21.4578 -0.873373 -17.4681
19 3 1 -20.4225 -0.614438 -17.3232
23 3 2 -19.8353 -1.15546 -18.127
26 3 2 -20.0925 -2.15951 -16.0528
20 3 1 -19.8842 -1.10489 -16.0303
27 3 2 -20.2691 -1.01388 -14.1435
25 3 2 -18.8506 -0.886307 -15.975
22 3 3 -20.3383 0.779175 -17.5034
28 3 2 -19.4298 1.14973 -17.4493
14 2 2 -14.5174 8.00727 -15.3412
15 2 2 -16.1008 8.78953 -15.8174
11 2 1 -16.1924 7.84259 -13.8026
17 2 2 -16.5805 6.85032 -14.1236
10 2 1 -15.3903 8.57777 -14.9631
13 2 2 -15.0944 9.55971 -14.5734
30 4 1 6.02174 -14.3702 -12.8634
34 4 2 4.1651 -14.1822 -11.8357
29 4 1 4.94648 -13.4743 -12.2117
31 4 3 6.61289 -15.0298 -11.8
35 4 2 6.72097 -13.8441 -13.5604
37 4 2 7.16823 -15.7955 -12.1636
32 4 3 5.56569 -12.6968 -11.2532
33 4 2 4.44335 -12.8446 -12.9719
38 4 2 5.92778 -11.9027 -11.6692
16 2 2 -15.4604 7.72936 -12.9635
12 2 3 -17.2803 8.62278 -13.2647
18 2 2 -16.9618 9.37528 -12.7614
6 1 2 -24.6394 -9.81213 19.9607
3 1 3 -22.2605 -8.78431 19.6105
8 1 2 -23.9485 -7.49122 19.4084
1 1 1 -24.2819 -9.11803 20.7859
5 1 2 -25.1301 -8.69578 21.2815
2 1 1 -23.3726 -8.09114 20.221
4 1 2 -23.7596 -9.72687 21.5406
9 1 2 -21.6436 -9.13703 20.2689
7 1 2 -22.9873 -7.39058 20.981
ITEM: TIMESTEP
18400
ITEM: NUMBER OF ATOMS
38
ITEM: BOX BOUNDS pp pp pp
-2.6905500000000000e+01 2.6905500000000000e+01
-2.6905500000000000e+01 2.6905500000000000e+01
-2.6905500000000000e+01 2.6905500000000000e+01
ITEM: ATOMS id mol type x y z
36 4 2 4.84689 -14.7671 -13.5456
21 3 3 -20.4407 -0.298369 -15.1501
24 3 2 -21.6505 -0.906375 -17.3681
19 3 1 -20.6137 -0.678554 -17.538
23 3 2 -20.194 -1.27969 -18.356
26 3 2 -19.7518 -1.99381 -15.8788
20 3 1 -19.7922 -0.939131 -16.2032
27 3 2 -19.9433 -0.383011 -14.3311
25 3 2 -18.7311 -0.572791 -16.2896
22 3 3 -20.5356 0.733551 -17.835
28 3 2 -19.5645 0.883042 -17.9801
14 2 2 -14.7158 7.8323 -15.6696
15 2 2 -16.1324 8.97836 -15.8005
11 2 1 -16.1439 7.79638 -14.0617
17 2 2 -16.7289 6.93652 -14.4559
10 2 1 -15.3841 8.51401 -15.1119
13 2 2 -14.8059 9.29261 -14.5784
30 4 1 5.66836 -14.1608 -13.0432
34 4 2 4.39829 -13.0639 -11.7061
29 4 1 5.19174 -12.8547 -12.432
31 4 3 6.1336 -15.0422 -12.0456
35 4 2 6.51415 -14.1152 -13.7724
37 4 2 6.15929 -15.9436 -12.4635
32 4 3 6.32257 -12.2539 -11.8949
33 4 2 4.72658 -12.1984 -13.1988
38 4 2 6.97926 -12.0612 -12.6499
16 2 2 -15.4325 7.30325 -13.3494
12 2 3 -17.0644 8.54212 -13.3268
18 2 2 -16.5998 9.24894 -12.8326
6 1 2 -24.8165 -9.60554 20.7122
3 1 3 -22.361 -8.95375 19.7001
8 1 2 -23.7973 -7.50366 19.9958
1 1 1 -24.104 -9.05358 21.3606
5 1 2 -24.7086 -8.39629 22.0047
2 1 1 -23.1517 -8.19289 20.5063
4 1 2 -23.4822 -9.80791 21.9623
9 1 2 -21.8447 -9.49154 20.3719
7 1 2 -22.5387 -7.55896 21.1553
ITEM: TIMESTEP
18600
ITEM: NUMBER OF ATOMS
38
ITEM: BOX BOUNDS pp pp pp
-2.6905500000000000e+01 2.6905500000000000e+01
-2.6905500000000000e+01 2.6905500000000000e+01
-2.6905500000000000e+01 2.6905500000000000e+01
ITEM: ATOMS id mol type x y z
36 4 2 5.01053 -14.6788 -13.5852
21 3 3 -20.2933 -0.00612264 -15.3166
24 3 2 -20.8949 -1.61632 -17.3886
19 3 1 -20.1467 -0.816646 -17.5676
23 3 2 -19.5471 -1.2571 -18.3955
26 3 2 -18.9398 -1.53609 -15.869
20 3 1 -19.3333 -0.534171 -16.2283
27 3 2 -19.7977 -0.0179373 -14.4642
25 3 2 -18.4888 0.187294 -16.4089
22 3 3 -20.7864 0.295494 -18.1212
28 3 2 -20.1351 1.00976 -18.3612
14 2 2 -14.5721 7.79026 -15.5126
15 2 2 -16.1375 8.63866 -15.8785
11 2 1 -16.1349 7.57523 -14.0472
17 2 2 -16.5713 6.65064 -14.5528
10 2 1 -15.4236 8.35385 -15.086
13 2 2 -15.0324 9.3656 -14.7076
30 4 1 5.75481 -14.0692 -13.1177
34 4 2 4.48832 -13.3048 -11.4651
29 4 1 5.10835 -12.9365 -12.2795
31 4 3 6.43264 -14.8979 -12.1887
35 4 2 6.49047 -13.6544 -13.8582
37 4 2 6.717 -15.6795 -12.6542
32 4 3 6.09062 -12.1037 -11.7385
33 4 2 4.42686 -12.3515 -12.898
38 4 2 6.68111 -11.6687 -12.5009
16 2 2 -15.5288 7.15148 -13.1505
12 2 3 -17.1889 8.32667 -13.525
18 2 2 -16.7553 8.97177 -12.9275
6 1 2 -24.8739 -9.3244 20.0014
3 1 3 -22.1643 -8.7657 19.552
8 1 2 -23.5029 -7.22038 19.9454
1 1 1 -24.2233 -9.10564 20.8247
5 1 2 -24.8332 -8.68585 21.6061
2 1 1 -23.0959 -8.17891 20.3986
4 1 2 -23.787 -10.031 21.2537
9 1 2 -21.7958 -9.46429 20.0674
7 1 2 -22.5715 -7.87493 21.349
ITEM: TIMESTEP
18800
ITEM: NUMBER OF ATOMS
38
ITEM: BOX BOUNDS pp pp pp
-2.6905500000000000e+01 2.6905500000000000e+01
-2.6905500000000000e+01 2.6905500000000000e+01
-2.6905500000000000e+01 2.6905500000000000e+01
ITEM: ATOMS id mol type x y z
36 4 2 4.42203 -14.7439 -13.3563
21 3 3 -20.5519 0.00387009 -15.072
24 3 2 -21.0471 -1.56104 -17.2261
19 3 1 -20.1667 -0.868454 -17.3024
23 3 2 -19.396 -1.41161 -17.9354
26 3 2 -19.2698 -1.50993 -15.3513
20 3 1 -19.6044 -0.578429 -15.8981
27 3 2 -19.949 0.262496 -14.3635
25 3 2 -18.7662 0.160181 -16.0333
22 3 3 -20.5487 0.27497 -18.0195
28 3 2 -19.6819 0.806212 -18.1504
14 2 2 -14.4843 7.47595 -14.9779
15 2 2 -16.122 7.64748 -15.7796
11 2 1 -16.2299 7.30249 -13.6309
17 2 2 -16.435 6.27422 -13.8029
10 2 1 -15.5041 7.92074 -14.8921
13 2 2 -15.5069 8.96918 -14.8188
30 4 1 5.29255 -14.0023 -13.1886
34 4 2 4.27488 -12.9918 -11.3906
29 4 1 4.80429 -12.7598 -12.3942
31 4 3 6.29876 -14.5463 -12.4488
35 4 2 5.69888 -13.5932 -14.1531
37 4 2 6.42208 -15.3657 -12.9288
32 4 3 5.90096 -11.8478 -12.0956
33 4 2 4.14445 -12.2023 -13.0363
38 4 2 6.33417 -11.7229 -13.0072
16 2 2 -15.631 7.40432 -12.7093
12 2 3 -17.4851 7.91501 -13.5213
18 2 2 -17.3684 8.91072 -13.4201
6 1 2 -24.6145 -9.12357 19.6175
3 1 3 -22.0682 -7.94475 19.7895
8 1 2 -23.5675 -7.055 20.9567
1 1 1 -24.1617 -9.16798 20.6473
5 1 2 -24.9696 -9.09412 21.3567
2 1 1 -23.0885 -8.10291 20.848
4 1 2 -23.6961 -10.2354 20.6867
9 1 2 -21.4212 -8.72899 19.8662
7 1 2 -22.5909 -8.3151 21.8198
ITEM: TIMESTEP
19000
ITEM: NUMBER OF ATOMS
38
ITEM: BOX BOUNDS pp pp pp
-2.6905500000000000e+01 2.6905500000000000e+01
-2.6905500000000000e+01 2.6905500000000000e+01
-2.6905500000000000e+01 2.6905500000000000e+01
ITEM: ATOMS id mol type x y z
36 4 2 4.81662 -14.5234 -14.0375
21 3 3 -20.3214 0.0303233 -15.2859
24 3 2 -21.669 -0.9891 -17.4699
19 3 1 -20.5303 -0.814257 -17.5508
23 3 2 -20.1534 -1.6343 -18.2532
26 3 2 -19.9378 -1.94971 -15.7184
20 3 1 -19.824 -0.902128 -16.1754
27 3 2 -19.8207 -0.0707796 -14.4509
25 3 2 -18.7198 -0.820426 -16.4174
22 3 3 -20.3934 0.50745 -18.1869
28 3 2 -19.3739 0.796449 -18.3348
14 2 2 -14.2794 6.61317 -14.3669
15 2 2 -15.1233 7.69009 -15.6038
11 2 1 -16.2925 7.04689 -13.8024
17 2 2 -16.6387 6.10391 -14.3503
10 2 1 -14.9545 7.46455 -14.5005
13 2 2 -14.5147 8.42049 -14.1446
30 4 1 5.55548 -13.9392 -13.5087
34 4 2 3.8934 -13.1066 -12.2374
29 4 1 4.74011 -12.7659 -12.9304
31 4 3 6.18483 -14.6567 -12.4913
35 4 2 6.31703 -13.5424 -14.2074
37 4 2 6.72737 -15.3017 -12.9984
32 4 3 5.44928 -11.8239 -12.1221
33 4 2 4.21573 -12.2925 -13.7881
38 4 2 6.1272 -11.4078 -12.7563
16 2 2 -16.0418 6.73805 -12.7203
12 2 3 -17.2644 8.04117 -13.7674
18 2 2 -16.9278 8.79741 -13.151
6 1 2 -24.0295 -9.39517 19.5164
3 1 3 -22.2895 -7.35225 19.7827
8 1 2 -23.9189 -7.59292 21.1485
1 1 1 -23.3229 -9.50766 20.37
5 1 2 -23.8845 -9.97627 21.2194
2 1 1 -22.9956 -8.11027 20.8617
4 1 2 -22.4378 -10.0828 19.989
9 1 2 -21.4511 -7.84112 19.6055
7 1 2 -22.2522 -8.16567 21.6543
ITEM: TIMESTEP
19200
ITEM: NUMBER OF ATOMS
38
ITEM: BOX BOUNDS pp pp pp
-2.6905500000000000e+01 2.6905500000000000e+01
-2.6905500000000000e+01 2.6905500000000000e+01
-2.6905500000000000e+01 2.6905500000000000e+01
ITEM: ATOMS id mol type x y z
36 4 2 4.34182 -14.1537 -13.6587
30 4 1 5.0916 -13.4439 -13.2112
35 4 2 5.67385 -13.0584 -14.0565
33 4 2 3.6565 -11.8681 -13.1956
24 3 2 -21.1969 -1.3687 -17.1204
19 3 1 -20.2154 -1.06346 -17.4206
23 3 2 -19.7692 -1.89705 -17.9051
26 3 2 -19.2982 -1.74562 -15.6308
20 3 1 -19.3358 -0.786267 -16.1499
27 3 2 -19.3517 0.215881 -14.446
25 3 2 -18.2577 -0.486703 -16.4122
21 3 3 -19.8186 0.215355 -15.3128
22 3 3 -20.3963 0.0219382 -18.356
28 3 2 -19.4444 0.235613 -18.7492
14 2 2 -14.4572 6.72491 -14.236
17 2 2 -16.8324 6.24012 -14.3902
15 2 2 -15.2354 8.00878 -15.2205
11 2 1 -16.5228 7.07113 -13.697
10 2 1 -15.1827 7.6009 -14.198
13 2 2 -14.7209 8.39447 -13.5133
12 2 3 -17.527 8.10266 -13.7193
31 4 3 5.86908 -14.1865 -12.3584
37 4 2 6.34887 -14.9104 -12.9528
34 4 2 3.78635 -12.8457 -11.5526
29 4 1 4.29594 -12.3612 -12.4309
32 4 3 5.21268 -11.3047 -11.9542
38 4 2 5.52876 -10.8397 -12.7824
16 2 2 -16.4141 6.51905 -12.6509
18 2 2 -17.3173 8.69821 -12.9821
6 1 2 -23.2253 -9.67889 19.3031
3 1 3 -22.2092 -7.52172 20.4582
4 1 2 -22.6623 -10.0517 21.0281
9 1 2 -21.3816 -7.99226 20.7949
8 1 2 -24.3038 -7.63634 20.2026
1 1 1 -23.4236 -9.60512 20.415
5 1 2 -24.4056 -10.1443 20.6175
2 1 1 -23.4812 -8.1438 20.7614
7 1 2 -23.6017 -8.01843 21.8978
ITEM: TIMESTEP
19400
ITEM: NUMBER OF ATOMS
38
ITEM: BOX BOUNDS pp pp pp
-2.6905500000000000e+01 2.6905500000000000e+01
-2.6905500000000000e+01 2.6905500000000000e+01
-2.6905500000000000e+01 2.6905500000000000e+01
ITEM: ATOMS id mol type x y z
36 4 2 3.71684 -14.0746 -13.2237
30 4 1 4.61132 -13.5777 -12.8197
35 4 2 5.36811 -13.384 -13.5507
33 4 2 3.75309 -11.5894 -12.997
24 3 2 -20.7915 -1.34147 -17.7669
19 3 1 -19.8347 -0.931537 -18.0148
23 3 2 -19.3171 -1.65379 -18.715
26 3 2 -18.8891 -1.80993 -16.2052
20 3 1 -19.0244 -0.81248 -16.7071
27 3 2 -19.0441 0.140798 -14.9844
25 3 2 -18.0035 -0.491766 -16.9952
21 3 3 -19.6574 -0.00346312 -15.7897
22 3 3 -20.0597 0.360051 -18.5093
28 3 2 -19.1806 0.689844 -18.8309
14 2 2 -14.4665 7.10333 -13.3105
17 2 2 -16.5083 6.32498 -14.2584
15 2 2 -15.1544 8.1859 -14.5634
11 2 1 -16.5537 7.07809 -13.4523
10 2 1 -15.2578 7.80408 -13.5297
13 2 2 -15.2316 8.6183 -12.7127
12 2 3 -17.6148 7.95572 -13.7553
31 4 3 5.33116 -14.3187 -11.8732
37 4 2 5.6923 -15.1089 -12.2764
34 4 2 3.39525 -12.3043 -11.3401
29 4 1 4.21298 -12.2259 -12.1833
32 4 3 5.38885 -11.6182 -11.6025
38 4 2 5.89174 -11.1272 -12.2859
16 2 2 -16.6681 6.54745 -12.5042
18 2 2 -17.5405 8.77872 -13.1582
6 1 2 -23.4467 -9.75533 19.4746
3 1 3 -22.7652 -7.22733 20.2801
4 1 2 -22.3996 -9.6861 21.0107
9 1 2 -21.8971 -7.51074 20.6953
8 1 2 -24.7542 -7.947 20.3732
1 1 1 -23.4076 -9.519 20.6001
5 1 2 -24.1374 -10.1344 21.1863
2 1 1 -23.7133 -8.10589 20.8088
7 1 2 -23.8182 -7.97185 21.8571
ITEM: TIMESTEP
19600
ITEM: NUMBER OF ATOMS
38
ITEM: BOX BOUNDS pp pp pp
-2.6905500000000000e+01 2.6905500000000000e+01
-2.6905500000000000e+01 2.6905500000000000e+01
-2.6905500000000000e+01 2.6905500000000000e+01
ITEM: ATOMS id mol type x y z
36 4 2 3.66704 -13.7229 -13.1657
30 4 1 4.54399 -13.2395 -12.6694
35 4 2 5.34318 -13.1908 -13.3747
33 4 2 3.64867 -11.3429 -12.9193
24 3 2 -20.235 -1.51924 -17.6903
19 3 1 -19.439 -0.781884 -17.8195
23 3 2 -18.5686 -1.28152 -18.3379
26 3 2 -18.444 -1.55858 -16.0396
20 3 1 -18.8029 -0.574468 -16.4332
27 3 2 -19.3519 -0.0202486 -14.7289
25 3 2 -17.9077 0.135362 -16.4792
21 3 3 -19.77 -0.0691679 -15.6174
22 3 3 -19.9574 0.312632 -18.5409
28 3 2 -19.099 0.983143 -18.7054
14 2 2 -14.1121 6.48094 -13.9448
17 2 2 -16.527 6.09938 -14.4475
15 2 2 -15.0356 7.89412 -14.8037
11 2 1 -16.3062 6.81371 -13.6419
10 2 1 -14.8672 7.30699 -13.8437
13 2 2 -14.6198 8.02572 -13.0828
12 2 3 -17.2107 7.8866 -13.6507
31 4 3 4.86518 -13.9964 -11.5261
37 4 2 5.07083 -14.9044 -11.916
34 4 2 3.33518 -11.9055 -11.2348
29 4 1 4.17533 -11.8265 -12.0582
32 4 3 5.2971 -11.1343 -11.4702
38 4 2 5.88893 -10.9487 -12.2009
16 2 2 -16.4114 6.26671 -12.6517
18 2 2 -16.9998 8.45338 -12.8619
6 1 2 -23.1441 -9.51927 19.4454
3 1 3 -22.4863 -7.23635 20.6274
4 1 2 -22.2356 -9.97351 20.8926
9 1 2 -21.6861 -7.48137 21.2201
8 1 2 -24.4218 -7.85125 20.5984
1 1 1 -23.1935 -9.5764 20.5263
5 1 2 -23.9548 -10.3023 20.7294
2 1 1 -23.486 -8.1785 21.0104
7 1 2 -23.5982 -8.03637 22.0988
ITEM: TIMESTEP
19800
ITEM: NUMBER OF ATOMS
38
ITEM: BOX BOUNDS pp pp pp
-2.6905500000000000e+01 2.6905500000000000e+01
-2.6905500000000000e+01 2.6905500000000000e+01
-2.6905500000000000e+01 2.6905500000000000e+01
ITEM: ATOMS id mol type x y z
36 4 2 3.30203 -13.6991 -13.0966
30 4 1 4.17829 -13.2577 -12.5628
35 4 2 5.04962 -13.3585 -13.2078
33 4 2 3.84686 -11.1804 -13.2284
24 3 2 -20.0813 -1.32159 -17.7317
19 3 1 -19.4363 -0.374922 -17.8032
23 3 2 -18.6597 -0.597119 -18.5439
26 3 2 -18.4003 -1.18764 -16.0844
20 3 1 -18.9031 -0.235758 -16.418
27 3 2 -19.5337 0.107171 -14.6171
25 3 2 -18.2044 0.610714 -16.3998
21 3 3 -19.9679 0.0871776 -15.4884
22 3 3 -20.1135 0.680776 -18.3649
28 3 2 -19.3367 1.30892 -18.4838
14 2 2 -14.1871 5.99287 -13.9349
17 2 2 -16.5265 6.10196 -14.5632
15 2 2 -14.5935 7.55324 -14.8901
11 2 1 -16.2334 6.64524 -13.7007
10 2 1 -14.7184 7.02724 -13.9141
13 2 2 -14.2204 7.67662 -13.093
12 2 3 -16.8846 7.84902 -13.6632
31 4 3 4.31148 -14.0277 -11.3502
37 4 2 4.30584 -14.9886 -11.5726
34 4 2 2.96268 -11.5329 -11.74
29 4 1 3.91725 -11.6996 -12.2522
32 4 3 4.95797 -11.2743 -11.4645
38 4 2 5.76998 -11.4143 -11.9687
16 2 2 -16.3807 6.07354 -12.8264
18 2 2 -16.6576 8.22357 -12.8684
6 1 2 -22.7115 -9.26426 19.3165
3 1 3 -22.6244 -7.07581 21.0303
4 1 2 -21.8964 -9.70721 20.8433
9 1 2 -21.7595 -7.28026 21.4953
8 1 2 -24.4963 -7.78077 20.544
1 1 1 -22.9156 -9.46189 20.3444
5 1 2 -23.6078 -10.3319 20.4693
2 1 1 -23.5531 -8.17331 21.0742
7 1 2 -23.7861 -8.56737 22.0413
ITEM: TIMESTEP
20000
ITEM: NUMBER OF ATOMS
38
ITEM: BOX BOUNDS pp pp pp
-2.6905500000000000e+01 2.6905500000000000e+01
-2.6905500000000000e+01 2.6905500000000000e+01
-2.6905500000000000e+01 2.6905500000000000e+01
ITEM: ATOMS id mol type x y z
24 3 2 -20.7896 -0.478477 -17.5505
19 3 1 -19.8041 -0.111672 -17.7266
23 3 2 -19.2682 -0.818647 -18.4674
26 3 2 -18.9678 -1.13549 -16.0333
20 3 1 -18.9775 -0.0932051 -16.4462
27 3 2 -19.4015 0.707971 -14.6821
25 3 2 -17.9769 0.152342 -16.6392
21 3 3 -19.7651 0.75408 -15.5924
22 3 3 -19.9292 1.13125 -18.4117
28 3 2 -18.9943 1.47262 -18.621
14 2 2 -13.6704 6.48797 -14.2317
17 2 2 -15.9348 5.81016 -14.8441
11 2 1 -15.7747 6.50466 -14.0135
15 2 2 -14.4589 7.94581 -15.1143
10 2 1 -14.4766 7.28226 -14.1864
12 2 3 -16.8076 7.36701 -13.8567
36 4 2 3.13978 -13.5378 -13.0104
31 4 3 4.56168 -13.8014 -11.3937
37 4 2 4.96097 -14.6287 -11.7942
30 4 1 4.0139 -13.0171 -12.5133
35 4 2 4.73655 -12.8491 -13.3129
33 4 2 3.011 -11.1808 -12.6913
34 4 2 2.91289 -11.9173 -11.0376
29 4 1 3.5739 -11.7213 -11.9068
32 4 3 4.59104 -10.9265 -11.4254
38 4 2 5.13884 -10.7758 -12.2747
16 2 2 -15.6372 5.86672 -13.0942
13 2 2 -14.215 7.9075 -13.2319
18 2 2 -16.6732 7.94671 -13.0582
6 1 2 -22.7086 -9.22507 19.4447
3 1 3 -22.8068 -7.10795 21.2384
4 1 2 -22.0998 -9.84581 20.9886
9 1 2 -21.8486 -7.36839 21.6317
8 1 2 -24.6018 -8.0398 20.7412
1 1 1 -23.005 -9.43265 20.5082
5 1 2 -23.7596 -10.1763 20.5534
2 1 1 -23.6633 -8.24131 21.2622
7 1 2 -23.9564 -8.50897 22.2898
ITEM: TIMESTEP
20200
ITEM: NUMBER OF ATOMS
38
ITEM: BOX BOUNDS pp pp pp
-2.6905500000000000e+01 2.6905500000000000e+01
-2.6905500000000000e+01 2.6905500000000000e+01
-2.6905500000000000e+01 2.6905500000000000e+01
ITEM: ATOMS id mol type x y z
24 3 2 -20.5175 -0.664366 -17.4663
19 3 1 -19.5766 -0.193789 -17.689
23 3 2 -18.9919 -1.02727 -18.1835
26 3 2 -18.8872 -0.808217 -15.6913
20 3 1 -18.9415 0.130628 -16.2857
27 3 2 -19.0269 1.55959 -14.9624
25 3 2 -17.9024 0.577115 -16.4842
21 3 3 -19.6292 1.11905 -15.6511
22 3 3 -19.6888 1.0226 -18.3509
28 3 2 -18.7381 1.42495 -18.4588
14 2 2 -13.0345 6.56469 -14.5136
17 2 2 -15.3826 6.52834 -15.7205
11 2 1 -15.2964 6.47074 -14.5664
15 2 2 -13.9927 8.11162 -14.2668
10 2 1 -13.9409 7.04222 -14.0423
12 2 3 -16.3699 7.28982 -14.0112
36 4 2 2.39221 -13.1401 -11.6394
31 4 3 4.19629 -13.9162 -10.9929
37 4 2 4.07503 -14.8886 -11.2485
30 4 1 3.44765 -13.0535 -11.8244
35 4 2 3.76233 -13.2328 -12.8765
33 4 2 3.15138 -10.8892 -12.0892
34 4 2 3.36176 -11.3779 -10.4425
29 4 1 3.74532 -11.5757 -11.4455
32 4 3 5.14202 -11.2365 -11.4694
38 4 2 5.37939 -11.4018 -12.4073
16 2 2 -15.4071 5.4409 -14.1707
13 2 2 -13.8108 6.94494 -12.9484
18 2 2 -16.4315 7.27607 -13.0443
6 1 2 -23.4087 -9.2741 19.6305
3 1 3 -23.0831 -7.31108 21.2501
4 1 2 -22.3729 -9.79699 21.0897
9 1 2 -22.2441 -7.64533 21.5561
8 1 2 -24.9837 -8.10104 20.9489
1 1 1 -23.4058 -9.56221 20.7033
5 1 2 -24.0464 -10.4949 20.7955
2 1 1 -23.9851 -8.37871 21.4452
7 1 2 -24.1316 -8.65689 22.4826
ITEM: TIMESTEP
20400
ITEM: NUMBER OF ATOMS
38
ITEM: BOX BOUNDS pp pp pp
-2.6905500000000000e+01 2.6905500000000000e+01
-2.6905500000000000e+01 2.6905500000000000e+01
-2.6905500000000000e+01 2.6905500000000000e+01
ITEM: ATOMS id mol type x y z
24 3 2 -20.4415 -0.514677 -17.5044
19 3 1 -19.5394 0.0610808 -17.77
23 3 2 -18.9275 -0.551151 -18.3108
26 3 2 -18.3094 -0.454728 -16.0128
20 3 1 -18.7297 0.429259 -16.545
27 3 2 -18.9784 1.45558 -14.8483
25 3 2 -17.9611 1.04369 -16.9359
21 3 3 -19.5604 1.18104 -15.6332
22 3 3 -19.9259 1.1086 -18.6065
28 3 2 -19.1688 1.6819 -18.976
14 2 2 -13.0919 6.28211 -14.7171
17 2 2 -15.4918 6.28301 -15.544
11 2 1 -15.2273 6.45968 -14.4202
15 2 2 -13.7401 7.93839 -14.8121
10 2 1 -13.7916 6.97419 -14.2836
12 2 3 -16.1768 7.35675 -13.9482
36 4 2 2.27335 -13.5991 -11.5175
31 4 3 4.32483 -14.0061 -11.3914
37 4 2 4.16187 -14.9423 -11.8219
30 4 1 3.23634 -13.1887 -11.8797
35 4 2 3.32558 -13.4204 -13.0015
33 4 2 2.71554 -11.1218 -12.035
34 4 2 3.50304 -11.5303 -10.4697
29 4 1 3.49565 -11.6871 -11.5367
32 4 3 4.73527 -11.2254 -12.07
38 4 2 4.73727 -11.3855 -13.1127
16 2 2 -15.3672 5.50179 -13.789
13 2 2 -13.628 7.04649 -13.1945
18 2 2 -16.153 7.2748 -12.9486
6 1 2 -23.4675 -9.75169 19.6654
3 1 3 -23.0904 -7.64932 21.4695
4 1 2 -22.54 -10.3045 21.2154
9 1 2 -22.2287 -7.94515 21.7581
8 1 2 -24.9864 -8.3564 21.0752
1 1 1 -23.4909 -9.96892 20.7611
5 1 2 -24.3175 -10.6837 20.8556
2 1 1 -24.0113 -8.74475 21.5466
7 1 2 -24.0843 -9.03704 22.6849
ITEM: TIMESTEP
20600
ITEM: NUMBER OF ATOMS
38
ITEM: BOX BOUNDS pp pp pp
-2.6905500000000000e+01 2.6905500000000000e+01
-2.6905500000000000e+01 2.6905500000000000e+01
-2.6905500000000000e+01 2.6905500000000000e+01
ITEM: ATOMS id mol type x y z
24 3 2 -19.6731 -0.644908 -18.0078
19 3 1 -18.99 0.188883 -17.9545
23 3 2 -17.9498 -0.147894 -18.3466
26 3 2 -18.5534 -0.328212 -15.889
20 3 1 -18.7708 0.552887 -16.4699
27 3 2 -19.837 1.0687 -14.9199
25 3 2 -17.9035 1.23637 -16.3474
21 3 3 -19.9645 1.04896 -15.9323
22 3 3 -19.4583 1.23665 -18.6638
28 3 2 -18.7517 1.91461 -18.6105
14 2 2 -13.0118 6.28338 -15.1483
17 2 2 -15.4617 6.15008 -15.749
11 2 1 -15.1744 6.20572 -14.6794
15 2 2 -13.8651 7.94295 -15.0637
10 2 1 -13.8344 6.87992 -14.5932
12 2 3 -16.2018 7.00236 -14.1305
36 4 2 2.42567 -13.0482 -11.4954
31 4 3 4.2998 -13.9177 -11.4671
37 4 2 3.7961 -14.7406 -11.5075
30 4 1 3.42489 -12.902 -11.9641
35 4 2 3.28002 -12.925 -13.0232
33 4 2 3.1837 -10.7387 -11.7527
34 4 2 4.02437 -11.5987 -10.3171
29 4 1 3.97501 -11.5352 -11.4731
32 4 3 5.23707 -11.2075 -12.049
38 4 2 5.26257 -11.1795 -13.0141
16 2 2 -15.2377 5.1043 -14.2456
13 2 2 -13.4201 6.92982 -13.5378
18 2 2 -15.8918 7.29088 -13.1869
6 1 2 -23.9403 -8.67263 19.7511
3 1 3 -23.0124 -7.14837 21.8876
4 1 2 -22.7589 -9.64692 20.7546
9 1 2 -22.0135 -7.41783 21.7968
8 1 2 -24.8534 -7.98143 22.0998
1 1 1 -23.7582 -9.16876 20.6891
5 1 2 -24.4896 -9.97243 20.8957
2 1 1 -23.7905 -8.31314 21.9276
7 1 2 -23.5021 -8.93831 22.7677
ITEM: TIMESTEP
20800
ITEM: NUMBER OF ATOMS
38
ITEM: BOX BOUNDS pp pp pp
-2.6905500000000000e+01 2.6905500000000000e+01
-2.6905500000000000e+01 2.6905500000000000e+01
-2.6905500000000000e+01 2.6905500000000000e+01
ITEM: ATOMS id mol type x y z
24 3 2 -19.6681 -0.303967 -17.7767
19 3 1 -18.8218 0.300586 -17.9335
23 3 2 -18.0009 -0.219862 -18.5515
26 3 2 -17.812 -0.191505 -16.153
20 3 1 -18.2804 0.696542 -16.5179
27 3 2 -18.7931 1.51593 -14.8776
25 3 2 -17.5377 1.43047 -16.663
21 3 3 -19.2446 1.2732 -15.7279
22 3 3 -19.274 1.44296 -18.5988
28 3 2 -18.6003 1.95598 -18.9065
14 2 2 -13.0816 6.24118 -14.9683
17 2 2 -15.0732 6.18583 -16.2779
11 2 1 -15.2149 6.25039 -15.2011
15 2 2 -13.74 7.90812 -14.912
10 2 1 -13.9076 6.85469 -14.6277
12 2 3 -16.3378 7.0795 -14.8282
36 4 2 2.38814 -12.394 -10.9807
31 4 3 4.10357 -13.6179 -11.0083
37 4 2 3.54414 -14.3813 -11.199
30 4 1 3.3413 -12.5222 -11.5356
35 4 2 3.16089 -12.6039 -12.7292
33 4 2 3.28812 -10.5 -11.5131
34 4 2 4.22271 -11.1387 -10.2027
29 4 1 4.02311 -11.2234 -11.2958
32 4 3 5.22286 -11.0724 -12.0058
38 4 2 5.02098 -10.8904 -12.9978
16 2 2 -15.3292 5.27074 -14.7948
13 2 2 -13.9119 6.7645 -13.506
18 2 2 -16.3384 7.20818 -13.809
6 1 2 -24.7698 -8.53268 20.0415
3 1 3 -23.1453 -7.13882 21.5559
4 1 2 -23.5049 -9.63862 20.4479
9 1 2 -22.3705 -7.56023 21.2382
8 1 2 -24.9395 -7.64268 22.2973
1 1 1 -24.3942 -9.16061 20.8593
5 1 2 -25.1779 -9.91459 21.2528
2 1 1 -24.0138 -8.14679 21.9913
7 1 2 -23.5902 -8.79493 22.8667
ITEM: TIMESTEP
21000
ITEM: NUMBER OF ATOMS
38
ITEM: BOX BOUNDS pp pp pp
-2.6905500000000000e+01 2.6905500000000000e+01
-2.6905500000000000e+01 2.6905500000000000e+01
-2.6905500000000000e+01 2.6905500000000000e+01
ITEM: ATOMS id mol type x y z
24 3 2 -19.9072 -0.398686 -18.2794
19 3 1 -18.9746 0.190082 -18.2119
23 3 2 -18.1875 -0.336267 -18.7867
26 3 2 -18.3706 -0.859897 -16.394
20 3 1 -18.5049 0.222762 -16.6791
27 3 2 -19.3255 0.752711 -14.9692
25 3 2 -17.5289 0.717205 -16.5857
21 3 3 -19.6018 0.737027 -15.9122
22 3 3 -19.1839 1.4571 -18.6954
28 3 2 -18.2459 1.78165 -18.7294
14 2 2 -13.2036 5.88326 -15.0637
17 2 2 -15.4747 5.94252 -16.3117
11 2 1 -15.5163 5.99597 -15.2289
15 2 2 -13.9546 7.52532 -15.2509
10 2 1 -14.0976 6.51549 -14.7873
12 2 3 -16.5842 6.82805 -14.8132
36 4 2 2.40435 -12.0358 -10.1947
31 4 3 3.77963 -13.3491 -10.9827
37 4 2 3.08884 -14.0573 -10.9948
30 4 1 3.14346 -12.098 -11.0038
35 4 2 2.58976 -12.0169 -11.9058
33 4 2 3.62624 -9.98453 -10.6664
34 4 2 4.61689 -11.1234 -9.79268
29 4 1 4.14705 -10.9711 -10.7824
32 4 3 5.15652 -10.8973 -11.734
38 4 2 4.73537 -10.7619 -12.6145
16 2 2 -15.719 4.96119 -14.9036
13 2 2 -14.1256 6.57641 -13.7236
18 2 2 -16.7768 6.76169 -13.8222
6 1 2 -25.3032 -8.66316 20.2696
3 1 3 -23.1522 -7.77754 21.6588
4 1 2 -24.2931 -9.97762 20.8804
9 1 2 -22.4512 -8.48577 21.422
8 1 2 -24.9908 -7.48498 22.484
1 1 1 -24.9684 -9.20375 21.2187
5 1 2 -25.8498 -9.63051 21.731
2 1 1 -24.3233 -8.31769 22.1843
7 1 2 -24.1016 -8.90218 23.0908
ITEM: TIMESTEP
21200
ITEM: NUMBER OF ATOMS
38
ITEM: BOX BOUNDS pp pp pp
-2.6905500000000000e+01 2.6905500000000000e+01
-2.6905500000000000e+01 2.6905500000000000e+01
-2.6905500000000000e+01 2.6905500000000000e+01
ITEM: ATOMS id mol type x y z
24 3 2 -19.7772 -0.260721 -18.2642
23 3 2 -18.01 -0.47683 -18.4687
26 3 2 -18.6435 -1.06172 -16.31
19 3 1 -18.8 0.162871 -18.0229
20 3 1 -18.5293 0.0453198 -16.525
27 3 2 -19.4359 0.360041 -14.8613
25 3 2 -17.4477 0.347403 -16.3197
21 3 3 -19.517 0.715728 -15.8078
22 3 3 -18.6135 1.45595 -18.5599
28 3 2 -17.7218 1.81331 -18.3409
14 2 2 -13.8854 5.14995 -15.5448
17 2 2 -16.2417 6.13895 -16.2884
11 2 1 -15.9627 6.02783 -15.2188
10 2 1 -14.4456 5.95091 -15.0165
16 2 2 -16.4611 5.11713 -14.7119
13 2 2 -14.2986 5.83997 -13.9172
15 2 2 -13.8753 6.83813 -15.3164
12 2 3 -16.5035 7.10748 -14.423
18 2 2 -16.2006 6.97759 -13.4792
37 4 2 3.00387 -13.5236 -11.3112
36 4 2 2.61073 -11.6582 -9.84572
31 4 3 3.78937 -12.9314 -11.078
30 4 1 3.27314 -11.6484 -10.7027
35 4 2 2.61617 -11.3192 -11.5537
33 4 2 4.0511 -9.62127 -10.2029
34 4 2 5.09057 -10.9688 -9.73883
29 4 1 4.40493 -10.6036 -10.5133
32 4 3 5.21513 -10.4685 -11.6944
38 4 2 4.62162 -10.1147 -12.4029
6 1 2 -25.6657 -8.35507 20.5142
3 1 3 -23.1437 -8.172 21.5769
4 1 2 -24.9886 -10.011 21.0874
9 1 2 -22.7981 -9.0348 21.2732
8 1 2 -24.6813 -7.39306 22.6041
1 1 1 -25.3895 -8.97077 21.3679
5 1 2 -26.2518 -9.23688 22.0439
2 1 1 -24.344 -8.35547 22.2392
7 1 2 -24.1347 -9.03937 23.0941
ITEM: TIMESTEP
21400
ITEM: NUMBER OF ATOMS
38
ITEM: BOX BOUNDS pp pp pp
-2.6905500000000000e+01 2.6905500000000000e+01
-2.6905500000000000e+01 2.6905500000000000e+01
-2.6905500000000000e+01 2.6905500000000000e+01
ITEM: ATOMS id mol type x y z
24 3 2 -19.7082 0.273146 -18.4134
23 3 2 -18.0134 -0.438971 -18.5448
26 3 2 -19.0153 -1.16751 -16.3089
19 3 1 -18.6224 0.281407 -17.9468
20 3 1 -18.6089 -0.095861 -16.4497
27 3 2 -19.3376 0.429427 -14.7683
25 3 2 -17.5401 0.016307 -16.059
21 3 3 -19.3875 0.753397 -15.7172
22 3 3 -18.0429 1.51713 -18.1819
28 3 2 -17.1644 1.41815 -17.8338
14 2 2 -13.9066 5.08975 -15.4264
17 2 2 -15.938 6.19495 -16.5286
11 2 1 -15.8105 6.05168 -15.3801
10 2 1 -14.3351 5.95757 -15.0092
16 2 2 -16.4122 5.18456 -15.0899
13 2 2 -14.212 5.88013 -13.8997
15 2 2 -13.8248 6.81574 -15.3395
12 2 3 -16.2848 7.16903 -14.7004
18 2 2 -16.258 6.92221 -13.7452
37 4 2 3.15124 -13.4943 -10.7136
36 4 2 2.62844 -11.4058 -9.94139
31 4 3 3.9081 -12.9123 -10.724
30 4 1 3.33326 -11.6314 -10.7986
35 4 2 2.87531 -11.5038 -11.8458
33 4 2 3.87048 -9.51395 -10.7054
34 4 2 4.85938 -10.62 -9.59011
29 4 1 4.38396 -10.537 -10.5843
32 4 3 5.48672 -10.6387 -11.529
38 4 2 5.11759 -10.4988 -12.4611
6 1 2 -26.0638 -7.79578 20.7743
3 1 3 -23.5055 -8.40078 21.4178
4 1 2 -25.9236 -9.49323 21.2182
9 1 2 -23.5234 -9.31322 21.137
8 1 2 -24.6146 -7.18417 22.7301
1 1 1 -25.9576 -8.46167 21.6438
5 1 2 -26.792 -8.38414 22.4135
2 1 1 -24.6055 -8.21279 22.2685
7 1 2 -24.5147 -8.84983 23.109
ITEM: TIMESTEP
21600
ITEM: NUMBER OF ATOMS
38
ITEM: BOX BOUNDS pp pp pp
-2.6905500000000000e+01 2.6905500000000000e+01
-2.6905500000000000e+01 2.6905500000000000e+01
-2.6905500000000000e+01 2.6905500000000000e+01
ITEM: ATOMS id mol type x y z
24 3 2 -19.3339 0.295762 -18.823
23 3 2 -17.7482 -0.37385 -18.8308
26 3 2 -19.3083 -0.923562 -16.7432
19 3 1 -18.4188 0.383314 -18.2847
20 3 1 -18.7481 0.0578408 -16.7963
27 3 2 -19.8484 0.857681 -15.3335
25 3 2 -17.8126 -0.0434704 -16.2343
21 3 3 -19.69 1.07652 -16.2801
22 3 3 -17.8813 1.71755 -18.4799
28 3 2 -17.2472 1.81662 -17.7464
14 2 2 -13.9517 5.00402 -15.4274
17 2 2 -15.8926 6.35792 -16.072
11 2 1 -15.6476 6.25714 -15.0359
10 2 1 -14.149 5.89898 -14.8288
16 2 2 -16.2451 5.41081 -14.6718
13 2 2 -14.0719 5.65623 -13.8176
15 2 2 -13.4018 6.64375 -15.0111
12 2 3 -15.9793 7.39795 -14.4082
18 2 2 -16.0082 7.18363 -13.4424
37 4 2 2.7646 -13.5561 -11.143
36 4 2 2.59622 -11.6795 -9.86785
31 4 3 3.56305 -13.0009 -11.0271
30 4 1 3.23436 -11.7146 -10.8378
35 4 2 2.62019 -11.3686 -11.7175
33 4 2 4.05193 -9.68027 -10.4058
34 4 2 4.83644 -11.0636 -9.62684
29 4 1 4.37695 -10.7511 -10.5233
32 4 3 5.38352 -10.689 -11.4604
38 4 2 5.10854 -10.4892 -12.4054
6 1 2 -25.4443 -7.51575 20.4424
3 1 3 -23.2415 -8.38321 21.685
4 1 2 -25.7376 -9.22108 21.0496
9 1 2 -23.3355 -9.3207 21.572
8 1 2 -24.3747 -6.90979 22.578
1 1 1 -25.5815 -8.16662 21.3539
5 1 2 -26.5389 -7.86506 21.7307
2 1 1 -24.4329 -7.96877 22.3172
7 1 2 -24.5368 -8.54872 23.2473
ITEM: TIMESTEP
21800
ITEM: NUMBER OF ATOMS
38
ITEM: BOX BOUNDS pp pp pp
-2.6905500000000000e+01 2.6905500000000000e+01
-2.6905500000000000e+01 2.6905500000000000e+01
-2.6905500000000000e+01 2.6905500000000000e+01
ITEM: ATOMS id mol type x y z
24 3 2 -18.8926 0.191493 -18.7803
23 3 2 -17.1367 -0.252587 -18.3235
26 3 2 -18.9373 -0.633794 -16.4481
19 3 1 -18.0051 0.45623 -18.1866
20 3 1 -18.529 0.375322 -16.6945
27 3 2 -19.8801 0.970129 -15.5418
25 3 2 -17.5768 0.608173 -16.0383
21 3 3 -19.5392 1.32917 -16.4084
22 3 3 -17.6864 1.79302 -18.5523
28 3 2 -16.9751 2.01411 -17.9508
14 2 2 -13.6082 5.44773 -15.5472
17 2 2 -15.8098 6.78584 -16.0784
11 2 1 -15.6616 6.2414 -15.0962
10 2 1 -14.1045 6.1685 -14.867
16 2 2 -16.2162 5.22191 -15.1583
13 2 2 -13.8804 5.77693 -13.8266
15 2 2 -13.5741 7.12312 -14.9252
12 2 3 -16.2345 7.06392 -14.11
18 2 2 -16.2867 6.54459 -13.2457
37 4 2 2.98968 -13.5674 -11.7232
36 4 2 2.55886 -12.0002 -10.0313
31 4 3 3.71022 -12.9157 -11.4257
30 4 1 3.18135 -11.7762 -10.8978
35 4 2 2.6052 -11.2569 -11.6283
33 4 2 3.66154 -9.8283 -10.2434
34 4 2 4.95677 -11.0436 -9.77952
29 4 1 4.22912 -10.7198 -10.586
32 4 3 4.94738 -10.3521 -11.8114
38 4 2 4.23339 -10.0823 -12.4453
6 1 2 -25.3381 -7.16159 20.339
3 1 3 -23.2854 -8.41227 21.6457
4 1 2 -25.7346 -8.86082 20.8208
9 1 2 -23.4914 -9.37601 21.4783
8 1 2 -24.0912 -6.96001 22.626
1 1 1 -25.5163 -7.83396 21.183
5 1 2 -26.3955 -7.4455 21.7211
2 1 1 -24.4439 -7.92185 22.2096
7 1 2 -24.7831 -8.49581 23.0597
ITEM: TIMESTEP
22000
ITEM: NUMBER OF ATOMS
38
ITEM: BOX BOUNDS pp pp pp
-2.6905500000000000e+01 2.6905500000000000e+01
-2.6905500000000000e+01 2.6905500000000000e+01
-2.6905500000000000e+01 2.6905500000000000e+01
ITEM: ATOMS id mol type x y z
24 3 2 -18.5795 -0.188598 -19.0467
23 3 2 -16.9633 -0.258147 -18.3288
26 3 2 -18.5113 -1.23844 -16.5686
19 3 1 -17.975 0.207414 -18.242
20 3 1 -18.4534 -0.146589 -16.7839
27 3 2 -19.9275 0.243772 -15.6462
25 3 2 -17.8207 0.186552 -15.9932
21 3 3 -19.7009 0.473115 -16.5979
22 3 3 -18.0456 1.54286 -18.6242
28 3 2 -17.5581 2.16217 -18.004
14 2 2 -13.3642 5.63175 -15.9001
17 2 2 -15.7299 6.72867 -16.1889
11 2 1 -15.4186 6.19558 -15.2712
10 2 1 -13.8741 6.28609 -15.1554
16 2 2 -15.7481 5.15503 -15.2997
13 2 2 -13.5069 5.84173 -14.1682
15 2 2 -13.472 7.2948 -15.1193
12 2 3 -15.8959 6.90526 -14.1782
18 2 2 -15.5445 6.49955 -13.348
37 4 2 2.95778 -13.2561 -11.917
36 4 2 2.75329 -12.1078 -9.80389
31 4 3 3.66174 -12.6819 -11.6178
30 4 1 3.08234 -11.662 -10.7859
35 4 2 2.14349 -11.2582 -11.3526
33 4 2 3.61511 -9.84425 -9.94639
34 4 2 4.87064 -10.9871 -9.95978
29 4 1 4.10749 -10.5552 -10.5325
32 4 3 4.63266 -9.92286 -11.6519
38 4 2 3.91184 -9.3311 -12.0145
6 1 2 -25.6726 -6.66643 20.8893
3 1 3 -23.5128 -8.23067 21.5027
4 1 2 -26.0131 -8.41327 20.651
9 1 2 -23.7762 -8.94798 20.8493
8 1 2 -24.4535 -7.10329 22.9908
1 1 1 -25.9062 -7.62272 21.4145
5 1 2 -26.8793 -7.58552 21.9758
2 1 1 -24.6448 -7.93975 22.2935
7 1 2 -24.9579 -8.85607 23.0055
ITEM: TIMESTEP
22200
ITEM: NUMBER OF ATOMS
38
ITEM: BOX BOUNDS pp pp pp
-2.6905500000000000e+01 2.6905500000000000e+01
-2.6905500000000000e+01 2.6905500000000000e+01
-2.6905500000000000e+01 2.6905500000000000e+01
ITEM: ATOMS id mol type x y z
24 3 2 -18.2468 -0.66524 -19.1407
23 3 2 -16.6693 -0.315943 -18.6179
26 3 2 -17.89 -1.06738 -16.6757
20 3 1 -18.1343 -0.036624 -17.0618
19 3 1 -17.7159 0.0450089 -18.5115
27 3 2 -19.6459 0.465139 -15.9132
25 3 2 -17.5019 0.691213 -16.5434
21 3 3 -19.5276 0.28063 -16.9027
22 3 3 -17.839 1.36074 -18.9279
28 3 2 -17.4736 1.95595 -18.2385
17 2 2 -15.7801 6.31219 -15.986
11 2 1 -15.2457 6.00778 -15.0322
10 2 1 -13.8618 6.59712 -15.0344
16 2 2 -15.1491 4.93725 -14.9808
13 2 2 -13.2849 6.31853 -14.1412
12 2 3 -16.0642 6.51933 -13.9813
14 2 2 -13.2616 6.16735 -15.8913
15 2 2 -13.9923 7.71349 -15.1329
37 4 2 2.7576 -13.3917 -12.2353
36 4 2 2.73238 -12.6917 -10.018
31 4 3 3.55666 -12.8338 -11.9253
30 4 1 3.05867 -12.0197 -10.7972
35 4 2 2.20172 -11.4461 -11.1767
33 4 2 3.5915 -10.4349 -9.40271
34 4 2 4.82661 -11.5499 -9.72035
29 4 1 4.0386 -11.0002 -10.2358
32 4 3 4.52672 -10.0731 -11.1834
38 4 2 3.72057 -9.65822 -11.6026
18 2 2 -15.5595 6.33068 -13.1924
3 1 3 -23.6699 -7.95721 21.9125
4 1 2 -26.1078 -8.27491 21.1898
9 1 2 -23.792 -8.85319 21.475
8 1 2 -24.61 -6.85018 23.3668
1 1 1 -25.9816 -7.34001 21.7789
5 1 2 -26.8368 -7.04606 22.3835
2 1 1 -24.8611 -7.6384 22.7013
7 1 2 -25.2535 -8.48424 23.2818
6 1 2 -25.7536 -6.53228 21.0858
ITEM: TIMESTEP
22400
ITEM: NUMBER OF ATOMS
38
ITEM: BOX BOUNDS pp pp pp
-2.6905500000000000e+01 2.6905500000000000e+01
-2.6905500000000000e+01 2.6905500000000000e+01
-2.6905500000000000e+01 2.6905500000000000e+01
ITEM: ATOMS id mol type x y z
24 3 2 -18.3707 -0.424246 -18.7864
23 3 2 -16.5673 -0.0726229 -18.3825
26 3 2 -17.6133 -0.692741 -16.432
20 3 1 -17.9252 0.28537 -16.8232
19 3 1 -17.6553 0.300859 -18.336
27 3 2 -19.5098 0.411548 -15.6415
25 3 2 -17.2848 0.949904 -16.2974
21 3 3 -19.3153 0.454538 -16.5899
22 3 3 -17.9525 1.54756 -18.9338
28 3 2 -17.4309 2.25813 -18.4917
17 2 2 -15.5135 7.19424 -15.9745
11 2 1 -15.053 6.38885 -15.3917
10 2 1 -13.5619 6.46279 -15.2578
16 2 2 -15.4758 5.49193 -15.9325
13 2 2 -13.1723 5.5809 -14.6565
12 2 3 -15.6444 6.53015 -14.147
14 2 2 -13.139 6.39173 -16.2738
15 2 2 -13.2293 7.43791 -14.8326
37 4 2 2.87275 -12.6298 -12.8166
36 4 2 2.62878 -12.5197 -10.419
31 4 3 3.54149 -12.1319 -12.2468
30 4 1 2.98814 -11.6778 -11.0365
35 4 2 2.07117 -11.0297 -11.2863
33 4 2 3.65141 -10.717 -9.18946
34 4 2 4.93729 -11.7403 -10.0548
29 4 1 4.04154 -11.0207 -10.1867
32 4 3 4.59045 -9.99536 -10.8895
38 4 2 3.97191 -9.19309 -10.8932
18 2 2 -15.3884 5.65974 -13.6957
3 1 3 -23.7126 -8.01501 22.1103
4 1 2 -26.2648 -8.4644 21.1889
9 1 2 -23.7288 -8.82702 21.4489
8 1 2 -24.9099 -7.12887 23.5499
1 1 1 -26.188 -7.6543 21.9013
5 1 2 26.6351 -7.59316 22.4477
2 1 1 -24.9335 -7.97286 22.8089
7 1 2 -25.0867 -8.94769 23.3312
6 1 2 -26.1043 -6.78914 21.3419
ITEM: TIMESTEP
22600
ITEM: NUMBER OF ATOMS
38
ITEM: BOX BOUNDS pp pp pp
-2.6905500000000000e+01 2.6905500000000000e+01
-2.6905500000000000e+01 2.6905500000000000e+01
-2.6905500000000000e+01 2.6905500000000000e+01
ITEM: ATOMS id mol type x y z
24 3 2 -18.2828 -0.214905 -18.8489
23 3 2 -16.5927 0.235861 -18.5891
26 3 2 -17.8417 -0.290323 -16.399
20 3 1 -18.0648 0.71405 -16.9176
19 3 1 -17.641 0.581585 -18.4327
27 3 2 -19.6396 0.737742 -15.8261
25 3 2 -17.4942 1.58582 -16.4164
21 3 3 -19.468 0.913813 -16.7848
22 3 3 -17.8445 1.73369 -19.1788
28 3 2 -17.1765 2.47524 -18.8781
17 2 2 -15.4128 6.58647 -16.3064
11 2 1 -14.9299 6.02416 -15.4888
10 2 1 -13.5103 6.41801 -15.5317
16 2 2 -15.0421 4.94132 -15.7599
13 2 2 -12.9608 5.89298 -14.7318
12 2 3 -15.5335 6.31953 -14.25
14 2 2 -13.0598 6.14188 -16.5394
15 2 2 -13.4004 7.47979 -15.2672
37 4 2 2.82827 -12.8704 -12.304
36 4 2 3.26423 -12.8154 -10.1656
31 4 3 3.55678 -12.2441 -12.0166
30 4 1 3.28274 -11.8548 -10.7244
35 4 2 2.30034 -11.2897 -10.5596
33 4 2 4.2136 -10.6569 -9.03693
34 4 2 5.26028 -11.6475 -10.1491
29 4 1 4.40468 -11.011 -10.1284
32 4 3 4.73201 -9.81222 -10.8683
38 4 2 4.00754 -9.18967 -10.7697
18 2 2 -15.0541 5.71668 -13.6317
3 1 3 -23.4637 -8.00787 21.885
4 1 2 -25.827 -9.23656 21.8729
9 1 2 -23.5198 -8.93995 21.6556
8 1 2 -24.5033 -6.60622 22.96
1 1 1 -25.8213 -8.11087 22.0393
5 1 2 -26.6691 -7.84047 22.6741
2 1 1 -24.5334 -7.73813 22.7643
7 1 2 -24.4078 -8.20543 23.7132
6 1 2 -25.9404 -7.55195 21.0697
ITEM: TIMESTEP
22800
ITEM: NUMBER OF ATOMS
38
ITEM: BOX BOUNDS pp pp pp
-2.6905500000000000e+01 2.6905500000000000e+01
-2.6905500000000000e+01 2.6905500000000000e+01
-2.6905500000000000e+01 2.6905500000000000e+01
ITEM: ATOMS id mol type x y z
24 3 2 -18.3063 -0.405943 -18.2997
23 3 2 -16.7113 0.503677 -18.114
26 3 2 -18.0784 0.456551 -16.0098
20 3 1 -18.4251 1.13329 -16.8547
19 3 1 -17.8423 0.585907 -18.1707
27 3 2 -19.9653 1.5039 -16.0671
25 3 2 -17.9637 2.11905 -16.7658
21 3 3 -19.7772 1.22088 -16.9631
22 3 3 -18.1849 1.38143 -19.2809
28 3 2 -17.7171 2.24675 -19.2935
17 2 2 -15.4544 6.88112 -16.3684
11 2 1 -15.1696 6.09107 -15.6477
10 2 1 -13.6607 6.29528 -15.5129
16 2 2 -15.3443 5.08581 -15.9836
13 2 2 -13.1914 5.6525 -14.7627
12 2 3 -15.7734 6.48678 -14.4624
14 2 2 -13.073 6.24946 -16.5267
15 2 2 -13.3896 7.28925 -15.0891
37 4 2 3.01492 -13.11 -12.584
36 4 2 2.77734 -12.6794 -10.1599
31 4 3 3.68507 -12.5813 -12.0868
30 4 1 3.11113 -11.9774 -10.9608
35 4 2 2.16824 -11.4322 -11.3148
33 4 2 3.96114 -10.5626 -9.37389
34 4 2 5.13963 -11.7425 -10.0116
29 4 1 4.25424 -11.1201 -10.312
32 4 3 4.73959 -10.2145 -11.2387
38 4 2 3.96951 -9.60477 -11.4219
18 2 2 -15.7017 5.90614 -13.7381
3 1 3 -23.3088 -7.93226 22.0433
4 1 2 -25.8567 -9.06876 22.1259
9 1 2 -23.4312 -8.79831 21.6638
8 1 2 -24.2677 -6.56479 23.3163
1 1 1 -25.6656 -7.95832 22.3551
5 1 2 -26.451 -7.6018 23.0825
2 1 1 -24.3154 -7.6691 22.9967
7 1 2 -24.1685 -8.2995 23.9606
6 1 2 -25.8939 -7.35173 21.3892
ITEM: TIMESTEP
23000
ITEM: NUMBER OF ATOMS
38
ITEM: BOX BOUNDS pp pp pp
-2.6905500000000000e+01 2.6905500000000000e+01
-2.6905500000000000e+01 2.6905500000000000e+01
-2.6905500000000000e+01 2.6905500000000000e+01
ITEM: ATOMS id mol type x y z
24 3 2 -18.4547 -0.744342 -17.9374
23 3 2 -16.8972 -0.00659052 -17.552
26 3 2 -18.4751 0.615433 -15.7658
20 3 1 -18.4437 1.14221 -16.7338
19 3 1 -17.9095 0.238927 -17.7957
27 3 2 -19.958 2.21503 -16.3596
25 3 2 -17.7175 1.95867 -16.7004
21 3 3 -19.7011 1.47979 -17.0186
22 3 3 -17.8849 0.951329 -19.0394
28 3 2 -17.2671 1.82272 -18.9745
17 2 2 -15.9687 6.06274 -16.2456
11 2 1 -15.3447 5.81321 -15.4432
10 2 1 -13.9694 6.37669 -15.9409
16 2 2 -15.3831 4.73683 -15.4238
13 2 2 -13.1469 6.14976 -15.2126
12 2 3 -15.7342 6.49029 -14.293
14 2 2 -13.7188 5.93313 -16.9515
15 2 2 -14.1019 7.46086 -16.0162
37 4 2 3.08246 -12.5466 -12.9802
36 4 2 2.70095 -12.5008 -10.6908
31 4 3 3.82022 -12.201 -12.4153
30 4 1 3.23126 -11.7075 -11.2518
35 4 2 2.4451 -10.8798 -11.4555
33 4 2 3.88243 -10.7433 -9.45648
34 4 2 4.93623 -12.0978 -10.0597
29 4 1 4.3582 -11.1758 -10.3628
32 4 3 5.20725 -10.2055 -11.0675
38 4 2 4.6748 -9.48044 -11.4267
18 2 2 -15.0329 6.36458 -13.6387
3 1 3 -23.7012 -7.71234 21.7045
4 1 2 -26.107 -8.75348 21.3513
9 1 2 -23.6302 -8.71692 21.5237
8 1 2 -24.8407 -6.5014 22.9284
1 1 1 -26.0694 -7.84539 21.9475
5 1 2 -26.922 -7.72499 22.7354
2 1 1 -24.7565 -7.5279 22.588
7 1 2 -24.5297 -8.21755 23.4344
6 1 2 -26.2449 -7.0535 21.1686
ITEM: TIMESTEP
23200
ITEM: NUMBER OF ATOMS
38
ITEM: BOX BOUNDS pp pp pp
-2.6905500000000000e+01 2.6905500000000000e+01
-2.6905500000000000e+01 2.6905500000000000e+01
-2.6905500000000000e+01 2.6905500000000000e+01
ITEM: ATOMS id mol type x y z
24 3 2 -18.7797 -0.401889 -18.3133
23 3 2 -17.0943 -0.219577 -17.7514
26 3 2 -18.3555 0.436147 -15.8923
20 3 1 -18.3603 1.06038 -16.7993
19 3 1 -17.9518 0.314872 -18.038
27 3 2 -19.7881 2.23556 -16.0325
25 3 2 -17.6311 1.83952 -16.6199
21 3 3 -19.6422 1.73671 -16.9108
22 3 3 -17.6503 1.0527 -19.1838
28 3 2 -17.0829 1.81849 -18.8618
17 2 2 -15.8716 6.06134 -15.9982
11 2 1 -15.2721 5.79454 -15.0892
10 2 1 -13.8256 6.24587 -15.3692
16 2 2 -15.3183 4.671 -14.9203
13 2 2 -13.091 5.96119 -14.5621
12 2 3 -15.82 6.37602 -13.9675
14 2 2 -13.5338 5.7785 -16.351
15 2 2 -13.8109 7.37542 -15.5091
37 4 2 2.56867 -12.9069 -12.6701
36 4 2 2.91928 -12.5361 -10.4579
31 4 3 3.50921 -12.5074 -12.5196
30 4 1 3.31612 -11.8608 -11.2679
35 4 2 2.5547 -11.0303 -11.3275
33 4 2 4.35162 -10.773 -9.79972
34 4 2 5.32765 -11.9824 -10.6757
29 4 1 4.56989 -11.1962 -10.7646
32 4 3 5.11753 -10.1519 -11.5717
38 4 2 4.393 -9.54805 -11.7364
18 2 2 -15.3037 6.1844 -13.1419
3 1 3 -24.1085 -7.37877 21.5752
4 1 2 -26.6292 -8.3643 21.7732
9 1 2 -24.1786 -8.34265 21.3
8 1 2 -24.9712 -6.05019 22.8789
1 1 1 -26.4401 -7.32825 22.1186
5 1 2 -27.0227 -7.0771 23.0038
2 1 1 -25.0225 -7.13947 22.5627
7 1 2 -24.9588 -7.90245 23.3369
6 1 2 -26.5714 -6.59591 21.2976
ITEM: TIMESTEP
23400
ITEM: NUMBER OF ATOMS
38
ITEM: BOX BOUNDS pp pp pp
-2.6905500000000000e+01 2.6905500000000000e+01
-2.6905500000000000e+01 2.6905500000000000e+01
-2.6905500000000000e+01 2.6905500000000000e+01
ITEM: ATOMS id mol type x y z
24 3 2 -19.0964 -0.424261 -18.7863
23 3 2 -17.3567 -0.669714 -18.7368
26 3 2 -18.2699 -0.300048 -16.5164
20 3 1 -18.2064 0.600432 -17.1769
19 3 1 -18.1154 0.0602268 -18.6421
27 3 2 -19.3427 1.62337 -15.9255
25 3 2 -17.3072 1.06111 -16.9854
21 3 3 -19.3295 1.42794 -16.9054
22 3 3 -17.9645 1.09093 -19.5988
28 3 2 -17.2553 1.65298 -19.2847
17 2 2 -16.028 5.9696 -15.2286
11 2 1 -15.1365 5.69247 -14.6271
10 2 1 -13.8309 6.41099 -15.0906
16 2 2 -14.8884 4.57158 -14.714
12 2 3 -15.4789 6.18828 -13.3582
13 2 2 -12.9251 6.05924 -14.3825
14 2 2 -13.6322 6.15937 -16.0929
15 2 2 -13.9703 7.5284 -14.9617
37 4 2 2.09542 -12.6913 -12.3958
36 4 2 3.25854 -13.0331 -10.4823
31 4 3 2.95647 -12.178 -12.306
30 4 1 3.19852 -12.0331 -10.9506
35 4 2 2.36325 -11.3933 -10.518
33 4 2 4.81913 -11.4519 -9.61882
34 4 2 5.3399 -12.0053 -11.2948
29 4 1 4.58906 -11.4226 -10.7198
32 4 3 4.78611 -10.0979 -11.2525
38 4 2 4.04169 -9.55173 -10.9704
18 2 2 -14.8169 6.10233 -12.7405
3 1 3 -24.2159 -7.63693 21.4271
4 1 2 -26.8735 -8.08043 22.0651
9 1 2 -24.6717 -8.47183 20.9652
1 1 1 -26.3632 -7.24069 22.4761
2 1 1 -24.8638 -7.50087 22.603
7 1 2 -24.8315 -8.38764 23.1646
5 1 2 27.0467 -7.06897 23.4916
8 1 2 -24.4306 -6.63856 23.1418
6 1 2 -26.5477 -6.32851 21.8274
ITEM: TIMESTEP
23600
ITEM: NUMBER OF ATOMS
38
ITEM: BOX BOUNDS pp pp pp
-2.6905500000000000e+01 2.6905500000000000e+01
-2.6905500000000000e+01 2.6905500000000000e+01
-2.6905500000000000e+01 2.6905500000000000e+01
ITEM: ATOMS id mol type x y z
24 3 2 -19.3526 -0.551831 -18.9262
23 3 2 -17.6784 -1.06835 -18.9202
26 3 2 -18.302 -0.819088 -16.5592
20 3 1 -18.2421 0.117135 -17.1975
19 3 1 -18.3495 -0.259955 -18.7082
27 3 2 -19.0643 1.1163 -15.8424
25 3 2 -17.231 0.538786 -17.0698
21 3 3 -19.1437 1.16029 -16.8355
22 3 3 -18.0257 0.734013 -19.6058
28 3 2 -17.1823 1.17199 -19.3733
17 2 2 -15.2137 6.21465 -15.3587
11 2 1 -14.7636 5.62809 -14.5442
10 2 1 -13.3003 5.86921 -14.3523
16 2 2 -14.9401 4.60539 -14.8053
12 2 3 -15.4932 5.8747 -13.3661
13 2 2 -12.9067 5.01407 -13.7315
14 2 2 -12.7162 5.69986 -15.2597
15 2 2 -13.051 6.88224 -13.8561
37 4 2 1.72039 -12.2531 -12.2764
36 4 2 3.24652 -13.0537 -10.7209
31 4 3 2.6593 -11.9316 -12.3566
30 4 1 3.08494 -12.0077 -11.0328
35 4 2 2.27798 -11.558 -10.3779
33 4 2 4.85093 -11.3927 -9.79792
34 4 2 5.11354 -11.8665 -11.5552
29 4 1 4.43282 -11.2863 -10.8926
32 4 3 4.53287 -9.90741 -11.3003
38 4 2 4.03342 -9.37559 -10.644
18 2 2 -15.2847 5.20381 -12.6515
3 1 3 -23.9638 -7.55819 21.8149
4 1 2 27.1253 -7.7849 21.6364
9 1 2 -24.3873 -8.171 21.1008
1 1 1 -26.2619 -6.99984 22.3356
2 1 1 -24.9478 -7.4268 22.7783
7 1 2 -25.0492 -8.3249 23.4129
5 1 2 26.8849 -6.85484 23.1726
8 1 2 -24.6378 -6.62491 23.539
6 1 2 -26.1782 -6.05678 21.8191
ITEM: TIMESTEP
23800
ITEM: NUMBER OF ATOMS
38
ITEM: BOX BOUNDS pp pp pp
-2.6905500000000000e+01 2.6905500000000000e+01
-2.6905500000000000e+01 2.6905500000000000e+01
-2.6905500000000000e+01 2.6905500000000000e+01
ITEM: ATOMS id mol type x y z
24 3 2 -18.8136 -0.845065 -19.1731
23 3 2 -17.0959 -0.405568 -19.1988
26 3 2 -17.8767 -0.682063 -16.7335
20 3 1 -18.0802 0.229174 -17.3841
19 3 1 -18.0776 -0.0338667 -18.917
27 3 2 -19.2219 1.16269 -16.0248
25 3 2 -17.2697 0.957564 -17.2025
21 3 3 -19.2998 0.779713 -16.9779
22 3 3 -18.3336 1.10703 -19.6634
28 3 2 -17.7522 1.86461 -19.4013
17 2 2 -14.853 6.1044 -15.7654
11 2 1 -14.7938 5.633 -14.7545
10 2 1 -13.3358 5.53987 -14.42
16 2 2 -15.3194 4.61551 -14.901
12 2 3 -15.6143 6.36831 -13.8535
13 2 2 -13.2619 4.97468 -13.4367
14 2 2 -12.8016 4.98197 -15.2071
15 2 2 -12.9444 6.59108 -14.2778
37 4 2 1.83782 -12.5837 -12.3524
36 4 2 3.47405 -13.2735 -10.8067
31 4 3 2.7546 -12.1776 -12.4467
30 4 1 3.32413 -12.2202 -11.1818
35 4 2 2.54518 -11.7232 -10.5881
33 4 2 5.10072 -11.3323 -10.1057
34 4 2 5.35863 -11.6637 -11.8589
29 4 1 4.60367 -11.2924 -11.1314
32 4 3 4.35986 -9.95548 -11.4417
38 4 2 3.56232 -9.61744 -10.9208
18 2 2 -15.3546 6.03748 -12.9848
3 1 3 -23.8727 -7.18586 22.5504
4 1 2 -26.5873 -7.51918 21.5147
9 1 2 -23.7522 -7.81729 21.8604
1 1 1 -26.41 -6.93669 22.4775
2 1 1 -25.1131 -7.41602 23.1998
7 1 2 -25.1486 -8.47309 23.439
5 1 2 26.5389 -7.08791 23.1066
8 1 2 -25.0976 -6.88859 24.1959
6 1 2 -26.3521 -5.86298 22.2947
ITEM: TIMESTEP
24000
ITEM: NUMBER OF ATOMS
38
ITEM: BOX BOUNDS pp pp pp
-2.6905500000000000e+01 2.6905500000000000e+01
-2.6905500000000000e+01 2.6905500000000000e+01
-2.6905500000000000e+01 2.6905500000000000e+01
ITEM: ATOMS id mol type x y z
24 3 2 -19.4827 -0.750308 -19.0215
23 3 2 -17.7643 -0.554477 -19.5649
26 3 2 -17.9498 -0.525548 -17.0987
20 3 1 -18.228 0.373512 -17.6673
19 3 1 -18.6308 -0.036399 -19.0496
27 3 2 -19.1213 1.02929 -16.0708
25 3 2 -17.2749 0.982459 -17.6056
21 3 3 -19.2673 1.01486 -17.0102
22 3 3 -18.9639 1.16634 -19.7448
28 3 2 -18.0947 1.57294 -19.9993
17 2 2 -15.0268 6.32628 -15.7357
11 2 1 -15.059 5.65133 -14.8155
10 2 1 -13.6124 5.17518 -14.6051
16 2 2 -15.685 4.76962 -14.9003
12 2 3 -15.4404 6.49141 -13.775
13 2 2 -13.4974 4.71698 -13.5785
14 2 2 -13.4116 4.39611 -15.3437
15 2 2 -12.8346 5.92738 -14.776
37 4 2 1.68593 -12.3577 -12.0426
36 4 2 3.73292 -13.0387 -10.8721
31 4 3 2.54657 -11.8279 -12.2123
30 4 1 3.33085 -11.9566 -11.0322
35 4 2 2.75341 -11.627 -10.2124
33 4 2 5.23746 -11.2369 -10.1462
34 4 2 5.16245 -11.2353 -11.9687
29 4 1 4.60893 -11.0219 -11.0781
32 4 3 4.32134 -9.66846 -11.2251
38 4 2 3.90181 -9.41756 -10.4405
18 2 2 -15.2024 6.05194 -12.8748
3 1 3 -24.0759 -7.18082 22.2597
4 1 2 -26.7323 -7.02393 21.6122
9 1 2 -24.283 -7.59617 21.3703
1 1 1 -26.3706 -6.51112 22.4876
2 1 1 -25.1985 -7.26399 23.1233
7 1 2 -25.4106 -8.31932 23.4019
5 1 2 26.5968 -6.42235 23.1981
8 1 2 -24.8689 -6.73184 24.0557
6 1 2 -26.0348 -5.50607 22.1329
ITEM: TIMESTEP
24200
ITEM: NUMBER OF ATOMS
38
ITEM: BOX BOUNDS pp pp pp
-2.6905500000000000e+01 2.6905500000000000e+01
-2.6905500000000000e+01 2.6905500000000000e+01
-2.6905500000000000e+01 2.6905500000000000e+01
ITEM: ATOMS id mol type x y z
24 3 2 -19.3049 -0.730658 -19.1814
23 3 2 -17.5479 -0.786559 -19.1612
26 3 2 -18.3181 -0.563935 -16.9005
20 3 1 -18.3346 0.333033 -17.5695
19 3 1 -18.3948 -0.122819 -19.0338
27 3 2 -19.2064 1.77325 -16.4713
25 3 2 -17.3514 0.899253 -17.3771
21 3 3 -19.3979 1.28453 -17.37
22 3 3 -18.404 0.989403 -19.9595
28 3 2 -17.682 1.65718 -19.687
17 2 2 -15.4461 5.90577 -15.9162
11 2 1 -14.9568 5.52437 -15.0476
10 2 1 -13.4612 5.4525 -15.3007
16 2 2 -15.3697 4.4706 -14.8956
12 2 3 -15.2831 6.1514 -13.8932
13 2 2 -12.9288 4.89395 -14.4519
14 2 2 -13.2532 4.89132 -16.2483
15 2 2 -13.1467 6.50531 -15.4127
37 4 2 1.81631 -12.4678 -11.9714
36 4 2 3.72339 -12.9905 -10.6055
31 4 3 2.54883 -11.8356 -11.9581
30 4 1 3.31212 -11.9503 -10.7754
35 4 2 2.6192 -11.6162 -9.93007
33 4 2 5.20515 -11.0703 -10.0959
34 4 2 5.23917 -11.3587 -11.8195
29 4 1 4.56902 -11.0272 -10.9767
32 4 3 4.02239 -9.73055 -11.1935
38 4 2 3.47151 -9.55759 -10.3567
18 2 2 -14.6961 5.82979 -13.0708
3 1 3 -24.0645 -7.37996 22.1145
4 1 2 -26.7958 -6.9331 22.0529
9 1 2 -24.4899 -8.07803 21.5147
2 1 1 -24.8735 -7.01645 23.1747
7 1 2 -25.2599 -7.97453 23.6083
8 1 2 -24.2053 -6.35518 23.8943
1 1 1 -26.1774 -6.2782 22.6743
5 1 2 -26.756 -5.9528 23.5573
6 1 2 -25.9042 -5.31429 22.1543
ITEM: TIMESTEP
24400
ITEM: NUMBER OF ATOMS
38
ITEM: BOX BOUNDS pp pp pp
-2.6905500000000000e+01 2.6905500000000000e+01
-2.6905500000000000e+01 2.6905500000000000e+01
-2.6905500000000000e+01 2.6905500000000000e+01
ITEM: ATOMS id mol type x y z
24 3 2 -19.7583 -0.451972 -19.2674
23 3 2 -18.1309 -0.862844 -19.7005
26 3 2 -18.5613 -0.853759 -17.1932
20 3 1 -18.3705 0.0817826 -17.7138
19 3 1 -18.7684 -0.0909226 -19.1859
27 3 2 -19.0996 1.10276 -16.147
25 3 2 -17.3226 0.362195 -17.6195
21 3 3 -19.2442 1.06298 -17.1759
22 3 3 -18.62 1.04566 -19.992
28 3 2 -17.6543 1.25496 -19.868
17 2 2 -16.0303 5.50983 -15.4771
11 2 1 -15.4063 5.18495 -14.6301
10 2 1 -14.0739 5.01246 -15.3248
16 2 2 -15.7285 4.3129 -14.1094
12 2 3 -15.2955 6.22918 -13.7162
13 2 2 -13.2803 4.6432 -14.6159
14 2 2 -14.2296 4.25647 -16.2039
15 2 2 -13.8068 5.99405 -15.7796
37 4 2 2.45619 -12.8124 -11.957
36 4 2 4.39597 -12.4948 -10.8066
31 4 3 2.82069 -11.8848 -12.0789
30 4 1 3.66539 -11.6581 -10.9282
35 4 2 3.02892 -11.6286 -10.0389
33 4 2 5.24913 -10.1547 -10.2319
34 4 2 5.06963 -10.3684 -11.9954
29 4 1 4.50703 -10.3396 -11.0863
32 4 3 3.73644 -9.1505 -11.0446
38 4 2 3.14611 -9.07479 -10.1713
18 2 2 -14.6982 5.95698 -12.9165
3 1 3 -23.696 -7.58545 21.8733
4 1 2 -26.1481 -7.13151 21.4589
9 1 2 -24.071 -8.24992 21.1534
2 1 1 -24.6396 -7.26793 22.8587
7 1 2 -24.9181 -8.11238 23.3936
8 1 2 -24.1507 -6.59836 23.5607
1 1 1 -25.756 -6.47192 22.1972
5 1 2 -26.5806 -6.10738 22.8533
6 1 2 -25.3421 -5.61496 21.614
ITEM: TIMESTEP
24600
ITEM: NUMBER OF ATOMS
38
ITEM: BOX BOUNDS pp pp pp
-2.6905500000000000e+01 2.6905500000000000e+01
-2.6905500000000000e+01 2.6905500000000000e+01
-2.6905500000000000e+01 2.6905500000000000e+01
ITEM: ATOMS id mol type x y z
24 3 2 -19.9372 -0.428371 -19.4775
23 3 2 -18.2572 -0.623569 -19.694
26 3 2 -18.8727 -0.486728 -17.3977
20 3 1 -18.7449 0.438667 -17.9231
19 3 1 -18.9501 0.146014 -19.3928
27 3 2 -19.4671 1.68034 -16.5631
25 3 2 -17.7382 0.785429 -17.7189
21 3 3 -19.6886 1.35007 -17.4655
22 3 3 -18.8047 1.21997 -20.2572
28 3 2 -17.8266 1.50593 -20.3679
17 2 2 -15.8179 5.18266 -14.9959
11 2 1 -14.8372 5.14274 -14.4152
10 2 1 -13.5898 5.24539 -15.3318
16 2 2 -14.6932 4.06971 -13.9506
12 2 3 -14.9409 6.21222 -13.4344
13 2 2 -12.6477 5.18889 -14.6752
14 2 2 -13.5714 4.48777 -16.0972
15 2 2 -13.5409 6.27518 -15.7839
37 4 2 2.29914 -13.0029 -11.9909
36 4 2 4.37728 -12.8681 -10.877
31 4 3 2.89238 -12.1873 -12.123
30 4 1 3.71008 -11.9844 -11.0072
35 4 2 3.04896 -12.0441 -10.12
33 4 2 5.15795 -10.5566 -10.3115
34 4 2 5.12659 -10.7032 -12.093
29 4 1 4.45898 -10.6137 -11.2147
32 4 3 3.56334 -9.53197 -11.347
38 4 2 3.03968 -9.54016 -10.5642
18 2 2 -14.0846 6.08503 -12.9846
3 1 3 -23.6794 -7.57712 21.2935
4 1 2 -26.3647 -7.02654 21.5085
9 1 2 -24.241 -8.16344 20.6613
2 1 1 -24.4379 -7.27273 22.4448
7 1 2 -24.6141 -8.20151 23.0081
8 1 2 -23.834 -6.66205 23.1906
1 1 1 -25.6713 -6.4455 22.1314
5 1 2 -26.1126 -6.27151 23.171
6 1 2 -25.4019 -5.49517 21.6103
ITEM: TIMESTEP
24800
ITEM: NUMBER OF ATOMS
38
ITEM: BOX BOUNDS pp pp pp
-2.6905500000000000e+01 2.6905500000000000e+01
-2.6905500000000000e+01 2.6905500000000000e+01
-2.6905500000000000e+01 2.6905500000000000e+01
ITEM: ATOMS id mol type x y z
24 3 2 -20.0201 -0.0803424 -19.3339
23 3 2 -18.2541 -0.361875 -19.1835
26 3 2 -19.2374 -0.0956959 -16.9777
20 3 1 -18.988 0.808909 -17.5986
19 3 1 -18.9902 0.36826 -19.1164
27 3 2 -20.0491 1.85189 -16.3703
25 3 2 -18.0762 1.30323 -17.2688
21 3 3 -19.9652 1.79263 -17.4031
22 3 3 -18.8347 1.45363 -20.0399
28 3 2 -17.9067 1.81414 -19.8104
17 2 2 -15.6956 5.40128 -14.5402
11 2 1 -14.672 5.07735 -14.3824
10 2 1 -13.9194 5.1348 -15.6807
16 2 2 -14.6994 3.96653 -13.9103
12 2 3 -14.2776 6.04848 -13.422
13 2 2 -12.8587 4.8664 -15.5581
14 2 2 -14.3221 4.37808 -16.3399
15 2 2 -14.0001 6.12576 -16.2075
37 4 2 2.29088 -13.1088 -11.6894
36 4 2 4.43558 -12.6809 -10.9671
31 4 3 2.70553 -12.2664 -12.0002
30 4 1 3.63639 -11.8698 -10.9599
35 4 2 3.0755 -11.8878 -10.0014
33 4 2 4.97865 -10.2599 -10.4536
34 4 2 4.92098 -10.5521 -12.2077
29 4 1 4.27902 -10.4986 -11.2679
32 4 3 3.29712 -9.47533 -11.3223
38 4 2 3.02646 -9.47227 -10.3094
18 2 2 -13.2763 6.14621 -13.522
3 1 3 -23.7624 -7.99818 21.404
4 1 2 -26.4447 -7.2118 20.9289
9 1 2 -24.3878 -8.71963 21.0682
2 1 1 -24.5864 -7.18983 22.2383
7 1 2 -25.0414 -7.75178 23.0701
8 1 2 -23.9481 -6.4528 22.6357
1 1 1 -25.6512 -6.44843 21.4124
5 1 2 -26.2186 -5.72104 22.0446
6 1 2 -25.1281 -5.86057 20.6806
ITEM: TIMESTEP
25000
ITEM: NUMBER OF ATOMS
38
ITEM: BOX BOUNDS pp pp pp
-2.6905500000000000e+01 2.6905500000000000e+01
-2.6905500000000000e+01 2.6905500000000000e+01
-2.6905500000000000e+01 2.6905500000000000e+01
ITEM: ATOMS id mol type x y z
24 3 2 -19.8104 0.14077 -19.518
23 3 2 -18.2153 -0.54177 -19.3526
26 3 2 -19.4701 -0.50881 -17.2056
20 3 1 -18.9701 0.449655 -17.5815
19 3 1 -18.8017 0.32703 -19.0568
27 3 2 -19.784 1.54088 -16.2563
25 3 2 -17.9416 0.668868 -17.2102
21 3 3 -19.8385 1.45998 -17.2602
22 3 3 -18.3372 1.49335 -19.668
28 3 2 -17.3957 1.64837 -19.3415
17 2 2 -15.7706 5.59117 -14.1664
11 2 1 -14.6666 5.38351 -14.2108
10 2 1 -14.2573 5.09103 -15.6848
16 2 2 -14.4828 4.5909 -13.5035
12 2 3 -14.0204 6.57118 -13.8606
13 2 2 -13.1856 4.82748 -15.7859
14 2 2 -14.8443 4.22476 -16.0807
15 2 2 -14.4728 6.04114 -16.2592
37 4 2 2.53572 -12.5825 -11.6612
36 4 2 4.66262 -12.371 -11.2544
31 4 3 2.85987 -11.6922 -11.829
30 4 1 4.01202 -11.504 -11.0393
35 4 2 3.84531 -11.5576 -9.94738
33 4 2 5.52804 -9.99578 -10.8287
34 4 2 5.02019 -10.2657 -12.5456
29 4 1 4.62783 -10.2024 -11.5022
32 4 3 3.69116 -9.15108 -11.2588
38 4 2 3.46394 -9.13064 -10.2516
18 2 2 -13.0162 6.50085 -13.9118
3 1 3 -23.5934 -7.97895 21.0535
4 1 2 -26.0154 -6.77057 20.1926
9 1 2 -23.9024 -8.31943 20.1946
2 1 1 -24.7143 -7.5144 21.7995
7 1 2 -25.2679 -8.36539 22.099
8 1 2 -24.2774 -7.12536 22.777
1 1 1 -25.5499 -6.41905 21.1217
5 1 2 -26.4383 -6.03691 21.7403
6 1 2 -24.9132 -5.57739 20.8011
ITEM: TIMESTEP
25200
ITEM: NUMBER OF ATOMS
38
ITEM: BOX BOUNDS pp pp pp
-2.6905500000000000e+01 2.6905500000000000e+01
-2.6905500000000000e+01 2.6905500000000000e+01
-2.6905500000000000e+01 2.6905500000000000e+01
ITEM: ATOMS id mol type x y z
23 3 2 -18.2198 -0.729415 -18.9416
26 3 2 -19.8785 -0.251919 -17.0386
24 3 2 -19.7024 0.200799 -19.3069
20 3 1 -19.0968 0.554288 -17.331
19 3 1 -18.6996 0.202549 -18.8029
27 3 2 -19.897 2.07544 -16.2656
25 3 2 -18.1819 0.441495 -16.6434
21 3 3 -19.6188 1.86999 -17.2359
22 3 3 -17.927 1.26307 -19.387
28 3 2 -17.1867 1.54336 -18.7657
17 2 2 -15.7452 5.56677 -14.5634
11 2 1 -14.7391 5.29009 -14.3518
10 2 1 -14.106 4.63702 -15.5814
16 2 2 -14.7659 4.50383 -13.5659
12 2 3 -14.0586 6.52848 -13.959
14 2 2 -14.6759 3.67271 -15.8331
15 2 2 -14.0358 5.24402 -16.5011
13 2 2 -13.0653 4.42272 -15.2452
18 2 2 -13.1876 6.34439 -13.7182
37 4 2 2.04806 -12.3895 -11.7133
36 4 2 4.36293 -12.4136 -11.2019
31 4 3 2.6344 -11.6075 -11.9206
30 4 1 3.70485 -11.5439 -11.0196
35 4 2 3.34749 -11.4627 -9.97443
33 4 2 5.4855 -10.2137 -10.7463
34 4 2 4.96468 -10.2547 -12.4618
29 4 1 4.56062 -10.3197 -11.4112
32 4 3 3.7157 -9.16963 -11.18
38 4 2 3.33521 -9.1201 -10.2581
3 1 3 -23.5582 -8.11132 21.6051
4 1 2 -25.3446 -6.65283 20.2486
9 1 2 -23.7374 -8.64672 20.8141
2 1 1 -24.9133 -7.91877 22.0178
7 1 2 -25.5811 -8.78777 21.8669
8 1 2 -25.0131 -7.53143 23.1021
1 1 1 -25.4107 -6.68091 21.3208
5 1 2 -26.4122 -6.48492 21.6011
6 1 2 -24.8671 -5.76898 21.7382
ITEM: TIMESTEP
25400
ITEM: NUMBER OF ATOMS
38
ITEM: BOX BOUNDS pp pp pp
-2.6905500000000000e+01 2.6905500000000000e+01
-2.6905500000000000e+01 2.6905500000000000e+01
-2.6905500000000000e+01 2.6905500000000000e+01
ITEM: ATOMS id mol type x y z
23 3 2 -17.4294 -0.493649 -19.1178
26 3 2 -19.2986 -0.48678 -17.4036
24 3 2 -19.0355 0.200905 -19.5518
20 3 1 -18.7927 0.452584 -17.5193
19 3 1 -18.1791 0.370718 -18.94
27 3 2 -19.9311 1.47808 -16.2547
25 3 2 -17.9072 0.492667 -16.8387
21 3 3 -19.6119 1.54287 -17.2288
22 3 3 -17.6661 1.61434 -19.3556
28 3 2 -16.8466 1.68234 -18.8411
17 2 2 -15.9073 5.71426 -14.3176
11 2 1 -14.8131 5.38183 -14.1107
10 2 1 -14.2604 4.62199 -15.3492
16 2 2 -14.8439 4.76394 -13.1885
12 2 3 -14.0535 6.49673 -13.8066
14 2 2 -14.8771 3.75329 -15.5262
15 2 2 -14.2921 5.3645 -16.1893
13 2 2 -13.1906 4.21127 -15.2176
18 2 2 -13.1783 6.21339 -13.5072
37 4 2 2.27372 -12.1704 -12.5645
36 4 2 4.1884 -12.3872 -11.1334
31 4 3 2.88845 -11.4208 -12.5048
30 4 1 3.6039 -11.4772 -11.3033
35 4 2 2.90921 -11.3216 -10.5289
33 4 2 5.0316 -10.2325 -10.3224
34 4 2 5.28519 -10.3834 -12.1245
29 4 1 4.57508 -10.2495 -11.3314
32 4 3 3.91771 -8.99006 -11.484
38 4 2 3.274 -8.79648 -10.7857
3 1 3 -23.6077 -8.04757 21.3371
4 1 2 -26.2051 -7.93709 20.4798
9 1 2 -23.9155 -8.82186 20.7689
2 1 1 -24.6782 -7.59967 22.0761
7 1 2 -25.0921 -8.45221 22.642
8 1 2 -24.3706 -6.74821 22.7164
1 1 1 -25.8696 -7.11124 21.2071
5 1 2 -26.743 -6.79024 21.8198
6 1 2 -25.6035 -6.26861 20.5596
ITEM: TIMESTEP
25600
ITEM: NUMBER OF ATOMS
38
ITEM: BOX BOUNDS pp pp pp
-2.6905500000000000e+01 2.6905500000000000e+01
-2.6905500000000000e+01 2.6905500000000000e+01
-2.6905500000000000e+01 2.6905500000000000e+01
ITEM: ATOMS id mol type x y z
23 3 2 -16.9167 -0.0117485 -18.019
26 3 2 -18.9366 0.0250189 -16.5486
24 3 2 -18.3909 -0.106029 -19.0571
20 3 1 -18.754 0.894918 -17.1909
19 3 1 -17.8448 0.56743 -18.3973
27 3 2 -20.4819 1.54278 -16.7974
25 3 2 -18.2601 1.6823 -16.6534
21 3 3 -19.9516 1.42551 -17.5969
22 3 3 -17.5718 1.70028 -19.1292
28 3 2 -17.0141 2.25137 -18.5806
17 2 2 -15.8438 6.15069 -13.5978
11 2 1 -14.8945 5.58536 -13.7796
10 2 1 -14.8457 5.02667 -15.1891
16 2 2 -14.7615 4.76727 -13.0487
12 2 3 -13.8435 6.47409 -13.6125
14 2 2 -15.7351 4.2979 -15.3524
15 2 2 -14.9114 5.77815 -15.957
13 2 2 -13.8659 4.50365 -15.1908
18 2 2 -12.9879 6.02463 -13.6582
37 4 2 2.37714 -12.3158 -12.8069
36 4 2 4.27918 -12.3991 -11.91
31 4 3 2.84603 -11.4434 -12.8246
30 4 1 3.60264 -11.5267 -11.7325
35 4 2 2.98697 -11.7152 -10.8784
33 4 2 5.14362 -10.5635 -10.554
34 4 2 5.07751 -10.1305 -12.3534
29 4 1 4.46821 -10.3007 -11.4639
32 4 3 3.68837 -9.06394 -11.2705
38 4 2 3.288 -9.1329 -10.3312
3 1 3 -23.5918 -7.78409 21.3335
4 1 2 -26.2378 -8.36253 21.1338
9 1 2 -23.8289 -8.74962 21.3193
2 1 1 -24.5925 -7.142 22.0662
7 1 2 -24.6345 -7.69882 23.0697
8 1 2 -24.2343 -6.09761 22.2091
1 1 1 -25.9178 -7.24784 21.3104
5 1 2 -26.7052 -6.64348 21.8555
6 1 2 -25.7123 -6.7372 20.4075
ITEM: TIMESTEP
25800
ITEM: NUMBER OF ATOMS
38
ITEM: BOX BOUNDS pp pp pp
-2.6905500000000000e+01 2.6905500000000000e+01
-2.6905500000000000e+01 2.6905500000000000e+01
-2.6905500000000000e+01 2.6905500000000000e+01
ITEM: ATOMS id mol type x y z
23 3 2 -17.1977 0.751447 -17.6232
26 3 2 -19.1053 0.237625 -16.2685
24 3 2 -18.3975 -0.269967 -18.4773
20 3 1 -19.2186 1.05235 -17.1028
19 3 1 -18.1445 0.724362 -18.1813
27 3 2 -21.1765 1.00711 -17.249
25 3 2 -19.0946 2.03925 -16.6658
21 3 3 -20.394 0.805525 -17.8363
22 3 3 -18.1169 1.68229 -19.2404
28 3 2 -17.8944 2.67373 -18.943
17 2 2 -15.5437 6.45854 -14.0391
11 2 1 -14.8185 5.65722 -13.8035
10 2 1 -14.8909 4.70982 -15.0453
16 2 2 -15.2306 5.04766 -12.9161
12 2 3 -13.5938 6.25743 -13.6743
14 2 2 -15.9357 4.23074 -15.1383
15 2 2 -14.7124 5.32629 -16.0162
13 2 2 -14.1031 3.87983 -15.0626
18 2 2 -12.9213 5.61047 -13.4626
37 4 2 3.09226 -12.5801 -13.2419
36 4 2 4.38398 -12.4904 -11.3272
31 4 3 3.23667 -11.6474 -12.9161
30 4 1 3.54855 -11.7812 -11.4777
35 4 2 2.65063 -12.2071 -10.96
33 4 2 4.41058 -10.6713 -9.94009
34 4 2 4.8169 -10.1058 -11.5798
29 4 1 3.99363 -10.402 -10.9321
32 4 3 3.12115 -9.33519 -10.9141
38 4 2 2.35892 -9.38494 -10.3013
3 1 3 -23.5584 -7.14013 21.1912
4 1 2 -25.9346 -8.71531 21.632
9 1 2 -23.4378 -8.07083 21.2608
2 1 1 -24.6605 -6.84313 22.0432
7 1 2 -24.3549 -7.06434 23.1224
8 1 2 -24.8347 -5.80165 21.9526
1 1 1 -25.9658 -7.57419 21.5383
5 1 2 -26.9002 -7.23935 22.0562
6 1 2 -26.0223 -7.22727 20.4567
ITEM: TIMESTEP
26000
ITEM: NUMBER OF ATOMS
38
ITEM: BOX BOUNDS pp pp pp
-2.6905500000000000e+01 2.6905500000000000e+01
-2.6905500000000000e+01 2.6905500000000000e+01
-2.6905500000000000e+01 2.6905500000000000e+01
ITEM: ATOMS id mol type x y z
23 3 2 -17.4902 1.80853 -17.6257
26 3 2 -19.1804 0.792217 -16.0054
24 3 2 -17.7656 0.155586 -18.0312
20 3 1 -19.4815 1.01109 -17.0644
19 3 1 -18.2391 1.1189 -17.9877
27 3 2 -21.3842 0.564662 -17.0932
25 3 2 -19.8277 2.06021 -17.0572
21 3 3 -20.4785 0.178729 -17.5587
22 3 3 -18.5461 1.45568 -19.3182
28 3 2 -19.0384 2.31452 -19.2792
17 2 2 -15.2854 6.591 -14.6587
11 2 1 -14.9627 5.67592 -14.0602
10 2 1 -15.267 4.50569 -14.9286
16 2 2 -15.5697 5.6355 -13.1658
12 2 3 -13.6493 5.95638 -13.8416
14 2 2 -16.3742 4.45592 -15.1035
15 2 2 -14.7851 4.60553 -15.9346
13 2 2 -14.9906 3.52399 -14.4107
18 2 2 -13.0472 5.19969 -13.7549
37 4 2 2.85292 -12.7356 -12.575
36 4 2 4.41222 -12.4093 -10.9517
31 4 3 3.22191 -11.8233 -12.4881
30 4 1 3.63381 -11.6966 -11.1158
35 4 2 2.85014 -11.8727 -10.3385
33 4 2 4.54468 -10.2663 -9.8429
34 4 2 4.94969 -10.089 -11.5522
29 4 1 4.12426 -10.2586 -10.8591
32 4 3 3.21481 -9.19792 -11.0567
38 4 2 2.41419 -9.22876 -10.4825
3 1 3 -23.5724 -7.22081 21.4126
4 1 2 -25.2973 -8.84345 22.6259
9 1 2 -23.0147 -7.69218 22.1098
2 1 1 -24.813 -6.88318 21.9392
7 1 2 -24.6413 -6.4853 22.9297
8 1 2 -25.1729 -6.08685 21.2738
1 1 1 -25.7912 -8.0548 22.0373
5 1 2 -26.7569 -7.90035 22.4195
6 1 2 -25.8423 -8.34974 21.0286
ITEM: TIMESTEP
26200
ITEM: NUMBER OF ATOMS
38
ITEM: BOX BOUNDS pp pp pp
-2.6905500000000000e+01 2.6905500000000000e+01
-2.6905500000000000e+01 2.6905500000000000e+01
-2.6905500000000000e+01 2.6905500000000000e+01
ITEM: ATOMS id mol type x y z
24 3 2 -17.5728 0.151921 -17.9492
27 3 2 -21.0249 0.0231596 -16.8618
21 3 3 -20.3697 0.162848 -17.5047
23 3 2 -17.4061 2.03553 -17.5801
26 3 2 -18.9951 0.875712 -16.0787
20 3 1 -19.4164 1.10188 -17.0458
19 3 1 -18.1397 1.20945 -17.9315
25 3 2 -19.8913 2.0938 -16.8923
22 3 3 -18.3914 1.37785 -19.2954
28 3 2 -18.731 2.34066 -19.4973
17 2 2 -15.2345 6.51182 -13.7547
11 2 1 -14.7979 5.42717 -13.5955
10 2 1 -15.5229 4.45297 -14.5506
12 2 3 -13.4034 5.65118 -13.6973
14 2 2 -16.6268 4.42813 -14.3192
15 2 2 -15.3966 4.73241 -15.6365
13 2 2 -14.9839 3.45549 -14.51
37 4 2 3.44675 -12.5692 -12.9968
36 4 2 5.04117 -12.1034 -11.3039
31 4 3 3.62778 -11.5917 -12.8638
30 4 1 4.07772 -11.5487 -11.4498
35 4 2 3.29842 -12.0148 -10.8505
33 4 2 4.68256 -9.99042 -10.009
34 4 2 5.00983 -9.58123 -11.6884
29 4 1 4.29256 -10.0772 -11.0395
32 4 3 3.06152 -9.38048 -11.1596
38 4 2 2.40522 -9.9044 -10.6282
16 2 2 -14.9875 5.16887 -12.5572
18 2 2 -12.8015 4.84031 -13.5693
3 1 3 -24.0774 -7.14799 21.1203
4 1 2 -25.0321 -9.03488 22.7645
9 1 2 -23.4938 -7.56866 21.7441
2 1 1 -25.3621 -7.15271 21.6104
1 1 1 -25.6973 -8.62494 21.9405
5 1 2 -26.7882 -8.73654 22.227
6 1 2 -25.5374 -9.19289 21.0136
7 1 2 -25.4751 -6.50124 22.5098
8 1 2 -26.1198 -6.65124 20.8762
ITEM: TIMESTEP
26400
ITEM: NUMBER OF ATOMS
38
ITEM: BOX BOUNDS pp pp pp
-2.6905500000000000e+01 2.6905500000000000e+01
-2.6905500000000000e+01 2.6905500000000000e+01
-2.6905500000000000e+01 2.6905500000000000e+01
ITEM: ATOMS id mol type x y z
24 3 2 -18.0806 -0.288157 -17.861
27 3 2 -20.9939 0.117292 -16.0809
21 3 3 -20.4608 0.0971991 -16.9513
23 3 2 -17.4524 1.45877 -17.6636
26 3 2 -19.028 0.997795 -15.7769
20 3 1 -19.455 1.06437 -16.8676
19 3 1 -18.3589 0.809629 -17.9083
25 3 2 -19.8008 2.15304 -16.9797
22 3 3 -18.7725 1.17606 -19.1617
28 3 2 -18.7587 2.16276 -19.1768
17 2 2 -15.177 6.03557 -13.7372
11 2 1 -14.5891 5.09636 -13.6774
10 2 1 -15.0483 4.1765 -14.7481
12 2 3 -13.266 5.37022 -13.8309
14 2 2 -16.1776 4.00928 -14.6657
15 2 2 -14.7824 4.58222 -15.771
13 2 2 -14.6492 3.18257 -14.5815
37 4 2 3.05824 -12.97 -12.8614
36 4 2 4.5871 -12.5138 -11.2132
31 4 3 3.16461 -12.051 -12.6192
30 4 1 3.80292 -11.8784 -11.3486
35 4 2 3.06721 -12.1537 -10.5496
33 4 2 4.76724 -10.575 -10.1044
34 4 2 4.94232 -10.0029 -11.8513
29 4 1 4.25407 -10.4292 -11.058
32 4 3 3.19674 -9.44106 -10.9446
38 4 2 2.47154 -9.771 -10.4134
16 2 2 -14.7904 4.61671 -12.6745
18 2 2 -12.728 4.51034 -13.741
3 1 3 -23.724 -7.01221 21.0538
4 1 2 -24.8115 -9.13604 21.9297
9 1 2 -23.2138 -7.84706 21.1531
2 1 1 -24.7413 -7.06572 22.0593
1 1 1 -25.5632 -8.3547 21.9663
5 1 2 -26.2581 -8.48802 22.8388
6 1 2 -26.0346 -8.33855 20.9126
7 1 2 -24.1656 -7.05733 23.0046
8 1 2 -25.4673 -6.17487 22.1535
ITEM: TIMESTEP
26600
ITEM: NUMBER OF ATOMS
38
ITEM: BOX BOUNDS pp pp pp
-2.6905500000000000e+01 2.6905500000000000e+01
-2.6905500000000000e+01 2.6905500000000000e+01
-2.6905500000000000e+01 2.6905500000000000e+01
ITEM: ATOMS id mol type x y z
24 3 2 -17.6362 -0.0207842 -17.6469
27 3 2 -21.0216 0.143086 -16.3639
21 3 3 -20.3012 -0.0257346 -17.0142
23 3 2 -17.5163 1.73844 -17.6734
26 3 2 -18.9971 1.02223 -15.816
20 3 1 -19.369 1.04139 -16.8749
19 3 1 -18.2346 0.879249 -17.8833
25 3 2 -19.9673 1.92951 -16.9728
22 3 3 -18.5238 0.909027 -19.277
28 3 2 -18.8114 1.78939 -19.5024
17 2 2 -15.5429 5.56171 -13.4996
11 2 1 -14.7141 4.8608 -13.4601
10 2 1 -14.9332 3.91161 -14.6016
12 2 3 -13.5299 5.68104 -13.6377
14 2 2 -15.79 3.18652 -14.4641
15 2 2 -15.1035 4.49657 -15.4728
13 2 2 -14.0037 3.32644 -14.7291
37 4 2 3.75705 -12.6601 -12.4495
36 4 2 4.51764 -12.0164 -10.5407
31 4 3 3.51584 -11.6765 -12.2544
30 4 1 3.61184 -11.4963 -10.8561
35 4 2 2.73673 -11.8162 -10.2705
33 4 2 4.03338 -9.78438 -9.55761
34 4 2 4.68479 -9.75585 -11.2272
29 4 1 3.79165 -9.97463 -10.6502
32 4 3 2.71257 -9.22078 -11.0648
38 4 2 1.95681 -9.40855 -10.459
16 2 2 -14.6289 4.24798 -12.5325
18 2 2 -12.7434 5.09967 -13.5979
3 1 3 -23.7017 -7.01779 21.0805
4 1 2 -24.6929 -9.38207 21.8457
9 1 2 -23.0083 -7.7355 20.9085
2 1 1 -24.4886 -7.24737 22.2144
1 1 1 -25.3305 -8.47244 21.9356
5 1 2 -26.055 -8.66549 22.8711
6 1 2 -25.9442 -8.22458 20.9566
7 1 2 -23.9044 -7.36451 23.1636
8 1 2 -25.1578 -6.37026 22.3697
ITEM: TIMESTEP
26800
ITEM: NUMBER OF ATOMS
38
ITEM: BOX BOUNDS pp pp pp
-2.6905500000000000e+01 2.6905500000000000e+01
-2.6905500000000000e+01 2.6905500000000000e+01
-2.6905500000000000e+01 2.6905500000000000e+01
ITEM: ATOMS id mol type x y z
24 3 2 -17.569 -0.606133 -18.1979
27 3 2 -20.6812 -0.243655 -16.284
21 3 3 -20.2131 -0.218408 -17.2149
23 3 2 -17.059 1.07913 -18.0034
26 3 2 -18.4806 0.250126 -16.0157
20 3 1 -19.0123 0.535834 -17.0071
19 3 1 -17.9727 0.433659 -18.1455
25 3 2 -19.2865 1.58222 -16.9585
22 3 3 -18.4903 0.712263 -19.3941
28 3 2 -18.7838 1.604 -19.2953
17 2 2 -15.6609 5.74209 -13.882
11 2 1 -14.9619 4.85895 -13.7142
10 2 1 -15.2114 3.94807 -14.8645
12 2 3 -13.6201 5.44649 -13.7207
14 2 2 -16.3459 3.67611 -14.8912
15 2 2 -14.9463 4.44939 -15.8231
13 2 2 -14.4722 3.11107 -14.6817
37 4 2 3.76906 -13.0001 -12.3138
36 4 2 4.47137 -12.06 -10.3914
31 4 3 3.76798 -11.9889 -12.3501
30 4 1 3.73871 -11.5162 -11.0014
35 4 2 2.62789 -11.8538 -10.6692
33 4 2 3.83092 -9.77411 -9.69723
34 4 2 4.89505 -9.6817 -11.1066
29 4 1 3.89684 -10.0226 -10.7523
32 4 3 2.93557 -9.30217 -11.4367
38 4 2 2.04487 -9.53702 -10.9782
16 2 2 -15.265 4.36825 -12.8052
18 2 2 -12.9326 4.77905 -13.7837
3 1 3 -23.138 -7.07287 21.3388
4 1 2 -24.2338 -9.52419 21.863
9 1 2 -22.4358 -7.60248 21.8492
2 1 1 -24.3406 -7.27622 22.0401
1 1 1 -24.8782 -8.65724 21.6533
5 1 2 -25.8725 -8.90492 22.0397
6 1 2 -24.939 -8.61111 20.5317
7 1 2 -24.2981 -7.16608 23.1321
8 1 2 -25.0429 -6.51613 21.6996
ITEM: TIMESTEP
27000
ITEM: NUMBER OF ATOMS
38
ITEM: BOX BOUNDS pp pp pp
-2.6905500000000000e+01 2.6905500000000000e+01
-2.6905500000000000e+01 2.6905500000000000e+01
-2.6905500000000000e+01 2.6905500000000000e+01
ITEM: ATOMS id mol type x y z
24 3 2 -17.5522 -0.55012 -17.5804
27 3 2 -20.9541 -0.645114 -16.5736
21 3 3 -20.1495 -0.692722 -17.172
23 3 2 -17.5383 1.16741 -17.7957
26 3 2 -18.9963 0.455345 -15.8971
20 3 1 -19.3948 0.468433 -16.9088
19 3 1 -18.2035 0.308555 -17.9138
25 3 2 -20.0016 1.38548 -17.0145
22 3 3 -18.5306 0.241207 -19.3327
28 3 2 -19.1608 0.93839 -19.6026
17 2 2 -15.8688 5.87949 -13.5237
11 2 1 -15.0116 5.16413 -13.6372
10 2 1 -15.424 4.13421 -14.6801
12 2 3 -13.7773 5.80005 -13.9994
14 2 2 -16.4196 3.57477 -14.4869
15 2 2 -15.3996 4.58919 -15.711
13 2 2 -14.6461 3.42242 -14.8182
37 4 2 4.83372 -12.5039 -12.0928
36 4 2 4.48492 -11.6876 -9.81055
31 4 3 4.63095 -11.4889 -11.9648
30 4 1 3.91465 -11.3728 -10.7001
35 4 2 2.93072 -11.8526 -10.6977
33 4 2 3.14846 -9.69806 -9.47147
34 4 2 4.63541 -9.3155 -10.4702
29 4 1 3.59596 -9.836 -10.4855
32 4 3 2.83051 -9.27808 -11.5002
38 4 2 1.85214 -9.62493 -11.4356
16 2 2 -15.0161 4.66916 -12.6688
18 2 2 -13.029 5.09411 -13.9113
3 1 3 -23.2297 -6.76467 21.4109
4 1 2 -23.793 -9.28036 21.6258
9 1 2 -22.4105 -7.28965 21.7539
2 1 1 -24.3396 -7.28224 22.0657
1 1 1 -24.7232 -8.68201 21.6301
5 1 2 -25.495 -9.0519 22.2457
6 1 2 -25.0819 -8.66074 20.563
7 1 2 -24.1894 -7.17795 23.1707
8 1 2 -25.2027 -6.52589 21.8671
ITEM: TIMESTEP
27200
ITEM: NUMBER OF ATOMS
38
ITEM: BOX BOUNDS pp pp pp
-2.6905500000000000e+01 2.6905500000000000e+01
-2.6905500000000000e+01 2.6905500000000000e+01
-2.6905500000000000e+01 2.6905500000000000e+01
ITEM: ATOMS id mol type x y z
27 3 2 -20.7947 -1.39573 -16.3512
24 3 2 -17.5298 -0.613176 -17.7549
21 3 3 -20.151 -1.01663 -17.062
26 3 2 -18.8595 -0.0996218 -15.7024
23 3 2 -17.6015 1.15365 -17.4052
20 3 1 -19.3324 0.0879413 -16.6707
19 3 1 -18.219 0.316578 -17.7112
25 3 2 -19.9303 1.04471 -16.5752
22 3 3 -18.7269 0.611839 -19.0361
28 3 2 -19.624 1.07614 -18.9319
10 2 1 -15.8396 4.22353 -14.491
12 2 3 -14.0408 5.73404 -13.8132
14 2 2 -16.5758 3.50517 -13.9787
15 2 2 -16.4121 5.01735 -15.0196
13 2 2 -15.3292 3.64967 -15.2032
18 2 2 -13.4482 5.23828 -14.5076
37 4 2 5.14637 -12.3935 -11.8751
36 4 2 4.06053 -12.0809 -9.64846
31 4 3 4.95458 -11.4937 -11.4836
30 4 1 3.83544 -11.5239 -10.5676
35 4 2 2.92221 -12.0411 -11.0062
33 4 2 2.57793 -10.2199 -9.38531
34 4 2 4.26369 -9.62656 -9.71104
29 4 1 3.3908 -10.1537 -10.1853
32 4 3 2.95294 -9.30151 -11.2508
38 4 2 2.17546 -9.80105 -11.65
17 2 2 -15.8222 5.35204 -12.6462
11 2 1 -15.0301 4.87464 -13.339
16 2 2 -14.5435 4.03318 -12.7824
4 1 2 -23.8708 -9.22187 21.5075
9 1 2 -22.433 -7.02657 22.2551
2 1 1 -24.4447 -7.18968 22.0808
1 1 1 -24.6471 -8.5264 21.2574
5 1 2 -25.661 -9.09206 21.5579
6 1 2 -24.6401 -8.33637 20.2092
7 1 2 -24.5677 -7.40095 23.1697
3 1 3 -23.2157 -6.52098 21.8094
8 1 2 -25.2682 -6.52404 21.8079
ITEM: TIMESTEP
27400
ITEM: NUMBER OF ATOMS
38
ITEM: BOX BOUNDS pp pp pp
-2.6905500000000000e+01 2.6905500000000000e+01
-2.6905500000000000e+01 2.6905500000000000e+01
-2.6905500000000000e+01 2.6905500000000000e+01
ITEM: ATOMS id mol type x y z
27 3 2 -20.8645 -0.992313 -16.7107
24 3 2 -17.5251 -0.78082 -17.7523
21 3 3 -20.1095 -0.857958 -17.363
26 3 2 -18.9675 -0.420122 -15.6702
23 3 2 -17.1606 0.903791 -17.3334
20 3 1 -19.201 0.0448088 -16.6848
19 3 1 -17.9892 0.225707 -17.6348
25 3 2 -19.7065 1.0353 -16.5375
22 3 3 -18.5047 0.694793 -18.9268
28 3 2 -18.97 1.56278 -18.7968
10 2 1 -15.9646 4.83439 -13.883
12 2 3 -13.8406 5.89274 -13.369
14 2 2 -16.7218 4.17418 -13.4575
15 2 2 -16.5133 5.79361 -13.9854
13 2 2 -15.7335 4.47596 -14.9242
18 2 2 -13.3658 5.58733 -14.163
37 4 2 4.95984 -12.6095 -11.8753
36 4 2 4.68818 -11.7734 -9.8304
31 4 3 4.71992 -11.6314 -11.8212
30 4 1 4.00465 -11.4819 -10.6446
35 4 2 3.14242 -12.1704 -10.6662
33 4 2 2.9694 -9.95468 -9.35122
34 4 2 4.54457 -9.3933 -10.2618
29 4 1 3.57821 -10.0656 -10.3882
32 4 3 2.87816 -9.55029 -11.4695
38 4 2 2.10408 -10.1123 -11.712
17 2 2 -15.1302 5.18739 -12.0391
11 2 1 -14.7925 4.90789 -13.0203
16 2 2 -14.4106 3.91734 -12.9405
4 1 2 -23.6665 -9.01255 22.2962
9 1 2 -22.5401 -6.54375 22.4054
2 1 1 -24.4554 -6.93847 22.2005
1 1 1 -24.4056 -8.39067 21.6978
5 1 2 -25.4516 -8.76664 21.8547
6 1 2 -24.1506 -8.55688 20.5982
7 1 2 -24.6882 -6.81661 23.244
3 1 3 -23.2828 -6.27656 21.8341
8 1 2 -25.2151 -6.38234 21.6634
ITEM: TIMESTEP
27600
ITEM: NUMBER OF ATOMS
38
ITEM: BOX BOUNDS pp pp pp
-2.6905500000000000e+01 2.6905500000000000e+01
-2.6905500000000000e+01 2.6905500000000000e+01
-2.6905500000000000e+01 2.6905500000000000e+01
ITEM: ATOMS id mol type x y z
27 3 2 -20.7591 -1.35306 -16.2888
24 3 2 -17.6186 -0.808086 -18.0831
21 3 3 -20.1365 -1.25525 -17.0897
26 3 2 -18.6464 -0.503251 -15.8574
23 3 2 -17.5786 0.856032 -17.5023
20 3 1 -19.2483 -0.235762 -16.7686
19 3 1 -18.256 0.0353056 -17.935
25 3 2 -19.7474 0.693704 -16.62
22 3 3 -18.8637 0.545444 -19.1029
28 3 2 -19.4284 1.27978 -18.786
10 2 1 -15.6131 5.18529 -14.3194
12 2 3 -13.9347 5.74317 -12.716
14 2 2 -16.5751 4.61414 -14.3972
15 2 2 -15.83 6.2749 -14.5765
13 2 2 -14.9314 4.81134 -15.0893
18 2 2 -13.314 5.55355 -13.4066
37 4 2 5.12848 -12.313 -11.6342
36 4 2 4.89806 -11.1463 -9.65647
31 4 3 4.81106 -11.4015 -11.6853
30 4 1 4.15886 -11.139 -10.5044
35 4 2 3.42148 -11.9327 -10.3542
33 4 2 2.9137 -9.58488 -9.58967
34 4 2 4.09629 -8.89366 -10.7352
29 4 1 3.40404 -9.77703 -10.5344
32 4 3 2.44216 -9.86934 -11.5353
38 4 2 1.8984 -10.6955 -11.4926
17 2 2 -15.9264 5.44181 -12.2078
11 2 1 -15.1607 5.03987 -12.8458
16 2 2 -14.9963 3.9696 -12.5867
4 1 2 -24.5357 -9.12432 21.4481
9 1 2 -22.8524 -7.00578 21.83
2 1 1 -24.7794 -6.92176 22.1032
1 1 1 -25.2155 -8.21318 21.3669
5 1 2 -26.251 -8.44141 21.6469
6 1 2 -25.1938 -7.97688 20.2587
7 1 2 -24.7953 -7.07633 23.2116
3 1 3 -23.5963 -6.43692 21.5385
8 1 2 -25.4754 -6.05934 21.9108
ITEM: TIMESTEP
27800
ITEM: NUMBER OF ATOMS
38
ITEM: BOX BOUNDS pp pp pp
-2.6905500000000000e+01 2.6905500000000000e+01
-2.6905500000000000e+01 2.6905500000000000e+01
-2.6905500000000000e+01 2.6905500000000000e+01
ITEM: ATOMS id mol type x y z
27 3 2 -20.7568 -1.78598 -16.3317
24 3 2 -17.8355 -1.08063 -17.9341
21 3 3 -20.4152 -1.3143 -17.1613
26 3 2 -18.9772 -0.800594 -15.8226
23 3 2 -17.8122 0.691892 -17.4672
20 3 1 -19.4563 -0.395528 -16.7707
19 3 1 -18.413 -0.14505 -17.8857
25 3 2 -19.9926 0.532949 -16.4913
22 3 3 -19.0083 0.260045 -19.1689
28 3 2 -19.4462 1.15859 -18.9555
10 2 1 -16.0828 5.33787 -14.4371
12 2 3 -14.0602 5.80023 -13.0997
14 2 2 -17.0951 4.96637 -14.3369
15 2 2 -16.1613 6.42923 -14.7445
13 2 2 -15.634 4.88346 -15.301
18 2 2 -13.5148 5.3739 -13.8158
37 4 2 5.7553 -12.0257 -11.2889
36 4 2 4.85318 -10.8727 -9.49001
31 4 3 5.02072 -11.3077 -11.5509
30 4 1 4.26275 -11.0164 -10.37
35 4 2 3.57478 -11.8343 -10.1839
33 4 2 2.98006 -9.51264 -9.86644
34 4 2 4.26021 -8.88795 -10.89
29 4 1 3.52633 -9.70871 -10.757
32 4 3 2.73208 -9.77692 -11.9435
38 4 2 2.0416 -10.5011 -11.8675
17 2 2 -15.936 5.58786 -12.3096
11 2 1 -15.2804 5.13084 -13.1562
16 2 2 -15.1654 4.02985 -12.9076
4 1 2 -24.594 -9.03742 21.6466
9 1 2 -22.8525 -7.25603 22.0349
2 1 1 -24.7753 -6.95621 22.3185
1 1 1 -25.2721 -8.14411 21.5154
5 1 2 -26.3284 -8.43211 21.8513
6 1 2 -25.2559 -7.83473 20.4072
7 1 2 -24.7536 -7.22694 23.4165
3 1 3 -23.5425 -6.56646 21.809
8 1 2 -25.506 -6.0938 22.2828
ITEM: TIMESTEP
28000
ITEM: NUMBER OF ATOMS
38
ITEM: BOX BOUNDS pp pp pp
-2.6905500000000000e+01 2.6905500000000000e+01
-2.6905500000000000e+01 2.6905500000000000e+01
-2.6905500000000000e+01 2.6905500000000000e+01
ITEM: ATOMS id mol type x y z
27 3 2 -21.2577 -1.61667 -16.5622
24 3 2 -18.0735 -0.73255 -18.1692
21 3 3 -20.5741 -1.61378 -17.2535
26 3 2 -19.3052 -0.595109 -16.0604
23 3 2 -18.3258 1.01827 -17.7128
20 3 1 -19.8852 -0.427216 -16.9888
19 3 1 -18.8463 0.0344444 -18.0436
25 3 2 -20.6031 0.409587 -16.7711
22 3 3 -19.4414 0.187217 -19.3155
28 3 2 -20.0411 0.993736 -19.2938
10 2 1 -16.2975 5.20633 -14.1532
12 2 3 -14.1046 5.68561 -13.0337
14 2 2 -17.1287 4.44126 -14.202
15 2 2 -16.7128 6.25967 -13.8643
13 2 2 -15.8583 5.24214 -15.1465
18 2 2 -13.5872 5.58602 -13.9039
37 4 2 4.9027 -12.4854 -11.3794
36 4 2 4.72891 -11.2323 -9.46259
31 4 3 4.74392 -11.499 -11.5079
30 4 1 4.05425 -11.0949 -10.3689
35 4 2 3.11927 -11.6953 -10.2792
33 4 2 3.31803 -9.32194 -9.63752
34 4 2 4.69544 -9.05732 -10.7018
29 4 1 3.7369 -9.61366 -10.5679
32 4 3 2.88541 -9.51134 -11.6559
38 4 2 1.9696 -9.97191 -11.3903
17 2 2 -15.715 4.59516 -12.1789
11 2 1 -15.215 4.75406 -13.1562
16 2 2 -14.7858 3.79934 -13.5537
4 1 2 -24.4962 -8.94402 22.0799
9 1 2 -22.9286 -7.07376 22.3954
2 1 1 -24.8849 -6.80736 22.3668
1 1 1 -25.2394 -8.19819 21.7489
5 1 2 -26.2899 -8.54284 21.9688
6 1 2 -25.1445 -8.13293 20.6887
7 1 2 -25.0126 -6.77058 23.4796
3 1 3 -23.5504 -6.37382 22.0432
8 1 2 -25.6441 -6.07259 22.0993
ITEM: TIMESTEP
28200
ITEM: NUMBER OF ATOMS
38
ITEM: BOX BOUNDS pp pp pp
-2.6905500000000000e+01 2.6905500000000000e+01
-2.6905500000000000e+01 2.6905500000000000e+01
-2.6905500000000000e+01 2.6905500000000000e+01
ITEM: ATOMS id mol type x y z
27 3 2 -21.4387 -1.67158 -16.8135
21 3 3 -20.8364 -1.29764 -17.5158
24 3 2 -18.4438 -0.707765 -18.3316
26 3 2 -19.496 -0.741166 -16.0934
20 3 1 -20.0109 -0.277412 -16.9188
25 3 2 -20.6794 0.556943 -16.6344
28 3 2 -20.1703 1.47874 -19.0705
23 3 2 -18.3347 0.987092 -17.678
19 3 1 -19.0291 0.166889 -18.037
22 3 3 -19.7159 0.601591 -19.1858
10 2 1 -16.4831 5.08463 -13.5087
14 2 2 -17.1823 4.26543 -13.643
13 2 2 -16.5731 5.69045 -14.4463
18 2 2 -14.0548 5.76958 -14.3819
16 2 2 -14.9765 3.72951 -14.3473
37 4 2 5.16549 -12.6753 -11.2305
36 4 2 4.92927 -11.3822 -9.3364
31 4 3 4.90057 -11.7236 -11.3578
30 4 1 4.22643 -11.3112 -10.2482
35 4 2 3.44188 -12.0412 -10.0109
33 4 2 3.15996 -9.52618 -9.66275
34 4 2 4.63754 -9.26392 -10.6726
29 4 1 3.73262 -9.94613 -10.5221
32 4 3 2.88452 -9.89722 -11.6366
38 4 2 2.14023 -10.4765 -11.4384
12 2 3 -14.0828 5.36864 -13.4299
15 2 2 -16.7317 5.7915 -12.609
17 2 2 -15.0806 3.93765 -12.4525
11 2 1 -15.1446 4.45965 -13.4425
4 1 2 -24.2615 -8.72937 21.7814
9 1 2 -22.6631 -6.87083 21.6054
2 1 1 -24.3243 -6.65592 22.6062
1 1 1 -24.9648 -7.8653 21.9402
5 1 2 -25.7776 -8.25964 22.5187
6 1 2 -25.3243 -7.58557 20.9515
7 1 2 -23.9488 -6.97413 23.5987
3 1 3 -23.3514 -6.14471 21.7411
8 1 2 -25.0827 -5.94825 22.7525
ITEM: TIMESTEP
28400
ITEM: NUMBER OF ATOMS
38
ITEM: BOX BOUNDS pp pp pp
-2.6905500000000000e+01 2.6905500000000000e+01
-2.6905500000000000e+01 2.6905500000000000e+01
-2.6905500000000000e+01 2.6905500000000000e+01
ITEM: ATOMS id mol type x y z
27 3 2 -21.2771 -2.06325 -17.1153
21 3 3 -20.6931 -1.57194 -17.7816
24 3 2 -18.3757 -0.345536 -18.3776
26 3 2 -19.5738 -0.82704 -16.1854
20 3 1 -20.1391 -0.522249 -17.098
25 3 2 -20.9112 0.156312 -16.7989
28 3 2 -20.6245 1.30192 -18.7401
23 3 2 -18.6778 1.11109 -17.4611
19 3 1 -19.1671 0.303197 -18.0105
22 3 3 -19.9244 0.70819 -19.0897
10 2 1 -16.5392 4.8574 -13.2198
14 2 2 -17.2843 4.12265 -13.4383
13 2 2 -16.7389 5.72061 -13.9015
18 2 2 -14.2689 6.05423 -13.8048
16 2 2 -14.925 3.97184 -14.4897
37 4 2 4.94205 -13.125 -11.0899
36 4 2 5.03849 -11.5826 -9.2419
31 4 3 4.83002 -12.1927 -11.2819
30 4 1 4.32843 -11.5431 -10.1193
35 4 2 3.47594 -12.1961 -9.84079
33 4 2 3.44332 -9.69963 -9.47737
34 4 2 4.61843 -9.41286 -10.8867
29 4 1 3.81431 -10.0739 -10.4362
32 4 3 2.67509 -10.0884 -11.3324
38 4 2 2.01727 -10.6777 -10.896
12 2 3 -14.2156 5.37743 -13.1684
15 2 2 -16.6556 5.17319 -12.1343
17 2 2 -14.8625 3.67153 -12.6655
11 2 1 -15.0781 4.32434 -13.4651
4 1 2 -24.5668 -8.72569 22.1677
9 1 2 -22.513 -7.37802 21.8907
2 1 1 -24.2922 -6.5941 22.2016
1 1 1 -25.0437 -7.83264 21.7303
5 1 2 -26.0027 -7.78796 22.2291
6 1 2 -25.1615 -7.93194 20.6841
7 1 2 -24.2231 -6.48262 23.293
3 1 3 -22.9956 -6.5597 21.5764
8 1 2 -24.9578 -5.7685 21.9209
ITEM: TIMESTEP
28600
ITEM: NUMBER OF ATOMS
38
ITEM: BOX BOUNDS pp pp pp
-2.6905500000000000e+01 2.6905500000000000e+01
-2.6905500000000000e+01 2.6905500000000000e+01
-2.6905500000000000e+01 2.6905500000000000e+01
ITEM: ATOMS id mol type x y z
27 3 2 -21.444 -1.74862 -16.9145
21 3 3 -20.8656 -1.50818 -17.6403
24 3 2 -18.5963 -1.14886 -18.7632
26 3 2 -19.2702 -1.05122 -16.4654
20 3 1 -19.9443 -0.520184 -17.1929
25 3 2 -20.4273 0.334993 -16.738
28 3 2 -20.1335 1.42679 -18.9967
23 3 2 -18.176 0.488384 -17.9742
19 3 1 -19.0208 -0.138697 -18.3659
22 3 3 -19.8278 0.532591 -19.3528
10 2 1 -16.4047 4.51543 -13.7135
14 2 2 -16.9218 3.68792 -14.2519
13 2 2 -16.6872 5.48167 -14.1877
18 2 2 -14.3378 6.13144 -13.7542
16 2 2 -14.4812 4.3294 -14.9129
37 4 2 4.74251 -13.2035 -11.2529
36 4 2 5.16204 -11.5957 -9.84344
31 4 3 4.48424 -12.3008 -11.5865
30 4 1 4.16313 -11.589 -10.4564
35 4 2 3.44856 -11.9829 -9.76966
33 4 2 3.67149 -9.64111 -9.79571
34 4 2 4.534 -9.61497 -11.4109
29 4 1 3.76879 -10.1604 -10.8
32 4 3 2.67838 -10.2692 -11.622
38 4 2 2.02395 -10.7689 -11.126
12 2 3 -14.1392 5.31649 -13.2112
15 2 2 -16.7217 4.53798 -12.6665
17 2 2 -14.6968 3.27382 -13.4838
11 2 1 -14.8969 4.32938 -13.89
4 1 2 -24.8064 -8.40279 23.0553
9 1 2 -22.795 -7.16138 22.6775
2 1 1 -24.4949 -6.60588 21.8436
1 1 1 -25.1196 -7.93394 22.1256
5 1 2 -26.2334 -7.70938 22.0698
6 1 2 -24.9295 -8.5971 21.242
7 1 2 -24.8063 -5.81446 22.5885
3 1 3 -23.1102 -6.72972 21.8895
8 1 2 -24.855 -6.23018 20.8328
ITEM: TIMESTEP
28800
ITEM: NUMBER OF ATOMS
38
ITEM: BOX BOUNDS pp pp pp
-2.6905500000000000e+01 2.6905500000000000e+01
-2.6905500000000000e+01 2.6905500000000000e+01
-2.6905500000000000e+01 2.6905500000000000e+01
ITEM: ATOMS id mol type x y z
27 3 2 -21.3356 -1.84947 -16.8923
21 3 3 -20.9475 -1.51652 -17.7893
24 3 2 -18.4469 -0.78538 -18.6515
26 3 2 -19.3399 -1.44584 -16.5451
20 3 1 -19.8952 -0.725533 -17.162
25 3 2 -20.3187 0.0750902 -16.5153
28 3 2 -20.2453 1.43215 -18.6961
23 3 2 -18.3497 0.545048 -17.4381
19 3 1 -19.0047 -0.0117767 -18.1099
22 3 3 -19.6504 0.699595 -19.0672
10 2 1 -16.2759 4.66021 -13.3691
14 2 2 -16.8755 3.92116 -13.8702
13 2 2 -16.7019 5.64086 -13.7438
18 2 2 -14.093 6.30501 -13.9059
16 2 2 -14.9937 4.42861 -14.9746
37 4 2 4.05983 -13.8136 -11.488
36 4 2 5.0337 -12.245 -9.74093
31 4 3 4.18464 -12.7885 -11.5424
30 4 1 4.08911 -12.0591 -10.3452
35 4 2 3.26031 -12.4891 -9.77348
33 4 2 3.92026 -9.94894 -9.75616
34 4 2 4.91056 -10.1919 -11.1298
29 4 1 3.95991 -10.552 -10.7175
32 4 3 2.96102 -10.101 -11.6824
38 4 2 2.0685 -10.3277 -11.2755
12 2 3 -13.867 5.46181 -13.4872
15 2 2 -16.4384 4.68031 -12.2503
17 2 2 -14.5361 3.39198 -13.5756
11 2 1 -14.8424 4.44989 -13.9017
4 1 2 -24.5261 -8.21437 23.2514
9 1 2 -22.8129 -6.62208 22.3745
2 1 1 -24.6637 -6.31464 22.2526
1 1 1 -25.1939 -7.72622 22.5268
5 1 2 -26.2213 -7.6206 22.9845
6 1 2 -25.1964 -8.251 21.5572
7 1 2 -24.5943 -5.75646 23.2249
3 1 3 -23.3862 -6.43667 21.6609
8 1 2 -25.3138 -5.78635 21.4767
ITEM: TIMESTEP
29000
ITEM: NUMBER OF ATOMS
38
ITEM: BOX BOUNDS pp pp pp
-2.6905500000000000e+01 2.6905500000000000e+01
-2.6905500000000000e+01 2.6905500000000000e+01
-2.6905500000000000e+01 2.6905500000000000e+01
ITEM: ATOMS id mol type x y z
27 3 2 -21.3206 -2.20899 -17.2968
21 3 3 -20.9772 -1.64937 -18.0528
24 3 2 -18.4804 -0.653732 -19.0393
26 3 2 -19.4954 -1.06988 -16.8156
20 3 1 -20.1701 -0.616656 -17.5263
25 3 2 -20.7799 0.131938 -16.9625
28 3 2 -20.384 1.48395 -19.2291
23 3 2 -18.4535 0.753748 -17.9188
19 3 1 -19.1398 0.0743727 -18.5358
22 3 3 -19.7444 0.759913 -19.5215
10 2 1 -15.8997 4.7469 -12.7399
14 2 2 -16.5731 4.12471 -13.2777
13 2 2 -16.3584 5.66412 -12.4775
18 2 2 -14.0923 6.49714 -12.678
16 2 2 -15.0164 5.3194 -14.608
37 4 2 3.85881 -13.6788 -11.2009
36 4 2 4.79341 -12.1291 -9.60845
31 4 3 3.99047 -12.753 -11.4367
30 4 1 3.8904 -11.8916 -10.3198
35 4 2 2.9329 -12.1939 -9.8219
33 4 2 3.70633 -9.69406 -9.96435
34 4 2 4.83383 -10.1688 -11.2791
29 4 1 3.85333 -10.3876 -10.8446
32 4 3 2.87039 -10.1228 -11.8205
38 4 2 2.00606 -10.3205 -11.5158
12 2 3 -13.6834 5.61153 -12.9304
15 2 2 -15.6523 4.26297 -11.7639
17 2 2 -14.3264 3.86543 -13.8897
11 2 1 -14.6829 4.87015 -13.6452
4 1 2 -24.4822 -7.83362 23.6329
9 1 2 -22.6203 -6.89493 22.1765
2 1 1 -24.4265 -6.08246 22.2823
1 1 1 -25.0957 -7.32524 22.8908
5 1 2 -26.0326 -7.01165 23.3717
6 1 2 -25.2307 -8.07133 22.0236
7 1 2 -24.1642 -5.28954 23.0478
3 1 3 -23.3224 -6.51168 21.606
8 1 2 -25.0407 -5.59439 21.634
ITEM: TIMESTEP
29200
ITEM: NUMBER OF ATOMS
38
ITEM: BOX BOUNDS pp pp pp
-2.6905500000000000e+01 2.6905500000000000e+01
-2.6905500000000000e+01 2.6905500000000000e+01
-2.6905500000000000e+01 2.6905500000000000e+01
ITEM: ATOMS id mol type x y z
27 3 2 -21.766 -1.82209 -17.2141
21 3 3 -21.1253 -1.58254 -17.955
24 3 2 -18.5016 -1.08051 -18.5386
26 3 2 -19.9542 -0.892462 -16.4311
20 3 1 -20.3612 -0.522941 -17.4193
19 3 1 -19.1425 -0.186493 -18.3737
25 3 2 -21.0655 0.33051 -17.2145
28 3 2 -19.993 1.22566 -19.4221
23 3 2 -18.5933 0.520495 -17.7521
22 3 3 -19.5468 0.353276 -19.5915
16 2 2 -15.1791 5.17571 -14.3308
17 2 2 -14.2441 3.66579 -13.9073
11 2 1 -14.6511 4.64643 -13.5275
37 4 2 3.68916 -13.6881 -11.3973
36 4 2 4.34818 -12.3179 -9.77546
31 4 3 3.55242 -12.7594 -11.5895
30 4 1 3.46479 -12.0323 -10.3514
35 4 2 2.59906 -12.2794 -9.74073
33 4 2 3.68603 -9.89052 -9.87562
34 4 2 4.40972 -10.5021 -11.4511
29 4 1 3.49869 -10.5274 -10.7602
32 4 3 2.33713 -10.1791 -11.3982
38 4 2 1.61677 -10.2965 -10.7532
10 2 1 -15.6029 4.52641 -12.3602
14 2 2 -16.4627 3.85265 -12.6859
13 2 2 -16.0285 5.53984 -11.9882
18 2 2 -13.8938 6.36365 -12.9336
12 2 3 -13.5052 5.43245 -13.0969
15 2 2 -15.1631 4.06664 -11.4643
4 1 2 -24.3203 -8.50792 23.4349
1 1 1 -25.1298 -7.74006 23.1503
5 1 2 -25.74 -7.53377 24.0279
6 1 2 -25.6274 -8.16218 22.2953
9 1 2 -23.0621 -7.56034 21.9945
2 1 1 -24.5131 -6.3896 22.6762
7 1 2 -23.9786 -5.77938 23.4631
3 1 3 -23.5381 -6.81005 21.6458
8 1 2 -25.2305 -5.67216 22.3271
ITEM: TIMESTEP
29400
ITEM: NUMBER OF ATOMS
38
ITEM: BOX BOUNDS pp pp pp
-2.6905500000000000e+01 2.6905500000000000e+01
-2.6905500000000000e+01 2.6905500000000000e+01
-2.6905500000000000e+01 2.6905500000000000e+01
ITEM: ATOMS id mol type x y z
27 3 2 -21.7992 -1.94627 -17.5244
21 3 3 -21.0294 -1.82463 -18.1035
24 3 2 -18.5061 -1.35335 -18.6951
26 3 2 -19.7495 -1.10243 -16.4723
20 3 1 -20.2836 -0.793686 -17.481
19 3 1 -19.1046 -0.414279 -18.4544
25 3 2 -20.9359 0.0986587 -17.2292
28 3 2 -19.9907 0.996931 -19.3935
23 3 2 -18.4299 0.415231 -17.9596
22 3 3 -19.5591 0.132268 -19.6322
16 2 2 -15.4519 5.45296 -14.1554
17 2 2 -14.5978 3.84469 -14.3089
11 2 1 -14.6856 4.78132 -13.6946
37 4 2 3.08029 -13.8266 -10.707
36 4 2 4.1945 -12.1042 -9.47181
31 4 3 3.1397 -12.9425 -11.1249
30 4 1 3.22498 -11.9633 -10.0164
35 4 2 2.43861 -12.1688 -9.29153
33 4 2 3.18751 -9.79626 -9.69665
34 4 2 3.95974 -10.2465 -11.299
29 4 1 3.14466 -10.4944 -10.575
32 4 3 1.94824 -10.3633 -11.2907
38 4 2 1.18888 -10.5722 -10.6659
10 2 1 -15.3826 4.35976 -12.4052
14 2 2 -16.3596 3.94345 -12.722
13 2 2 -15.5836 5.20685 -11.7211
18 2 2 -13.593 6.18431 -13.083
12 2 3 -13.4382 5.37644 -13.5686
15 2 2 -14.8024 3.59254 -11.8364
4 1 2 -24.7174 -8.67393 23.1904
1 1 1 -25.4069 -7.82657 22.8904
5 1 2 -26.2684 -7.75369 23.714
6 1 2 -25.8923 -8.13963 21.9056
9 1 2 -23.0513 -7.50856 22.3114
2 1 1 -24.6429 -6.55607 22.8346
7 1 2 -24.334 -6.34142 23.9403
3 1 3 -23.5927 -6.73844 21.9772
8 1 2 -25.2651 -5.684 22.4785
ITEM: TIMESTEP
29600
ITEM: NUMBER OF ATOMS
38
ITEM: BOX BOUNDS pp pp pp
-2.6905500000000000e+01 2.6905500000000000e+01
-2.6905500000000000e+01 2.6905500000000000e+01
-2.6905500000000000e+01 2.6905500000000000e+01
ITEM: ATOMS id mol type x y z
27 3 2 -21.7485 -1.76981 -17.787
21 3 3 -21.1483 -1.31072 -18.4143
24 3 2 -18.47 -1.07825 -19.132
26 3 2 -19.6372 -1.33924 -16.9979
20 3 1 -20.0926 -0.639329 -17.7484
19 3 1 -18.9922 -0.193949 -18.7188
25 3 2 -20.4922 0.22148 -17.2624
28 3 2 -19.6395 1.48613 -19.2566
23 3 2 -18.3037 0.338248 -18.0652
22 3 3 -19.2759 0.746584 -19.7583
16 2 2 -15.4617 6.20215 -13.8973
17 2 2 -15.2098 4.41594 -14.3614
11 2 1 -14.8778 5.21367 -13.6265
37 4 2 3.27309 -13.3765 -10.8066
36 4 2 3.98912 -11.6194 -9.77458
31 4 3 2.86807 -12.5207 -11.2023
30 4 1 2.93591 -11.641 -10.0932
35 4 2 2.32077 -11.9821 -9.25506
33 4 2 2.80426 -9.51644 -9.6177
34 4 2 3.38521 -9.92332 -11.3032
29 4 1 2.66054 -10.1915 -10.518
32 4 3 1.37584 -9.99763 -11.1132
38 4 2 0.711919 -10.2819 -10.4557
10 2 1 -15.2997 4.75563 -12.1968
14 2 2 -16.4316 4.57218 -12.2107
13 2 2 -15.0268 5.5273 -11.4681
18 2 2 -13.2759 6.10637 -13.297
12 2 3 -13.4472 5.38677 -13.8617
15 2 2 -14.7996 3.78217 -11.8731
4 1 2 -25.0854 -8.79554 22.6332
1 1 1 -25.7183 -7.83367 22.7624
5 1 2 -26.3421 -7.90378 23.6709
6 1 2 -26.4431 -7.74616 21.8905
9 1 2 -23.277 -7.26572 21.8603
2 1 1 -24.8086 -6.71779 22.9155
7 1 2 -24.1491 -6.87766 23.8363
3 1 3 -23.9329 -6.51165 21.7825
8 1 2 -25.4794 -5.81802 23.0701
ITEM: TIMESTEP
29800
ITEM: NUMBER OF ATOMS
38
ITEM: BOX BOUNDS pp pp pp
-2.6905500000000000e+01 2.6905500000000000e+01
-2.6905500000000000e+01 2.6905500000000000e+01
-2.6905500000000000e+01 2.6905500000000000e+01
ITEM: ATOMS id mol type x y z
27 3 2 -21.6117 -1.61384 -18.2808
21 3 3 -20.8422 -1.25151 -18.6979
24 3 2 -18.1194 -0.807769 -18.7476
26 3 2 -19.7467 -1.37882 -16.9317
20 3 1 -20.1237 -0.62566 -17.6762
19 3 1 -18.8589 -0.0329997 -18.4028
25 3 2 -20.7483 0.187233 -17.2327
28 3 2 -19.696 1.55934 -18.982
23 3 2 -18.2846 0.528152 -17.6329
22 3 3 -19.2099 0.830506 -19.4892
16 2 2 -15.3297 6.56629 -14.1167
17 2 2 -15.7327 4.76134 -14.2758
11 2 1 -15.0523 5.57898 -13.8168
37 4 2 2.67514 -13.5635 -11.1756
36 4 2 4.20743 -12.2208 -9.79607
31 4 3 2.81863 -12.6018 -11.2981
30 4 1 3.20899 -11.794 -10.1663
35 4 2 2.4636 -11.8774 -9.39062
33 4 2 3.71405 -9.76298 -9.6551
34 4 2 3.94481 -10.177 -11.3957
29 4 1 3.26165 -10.3397 -10.5602
32 4 3 1.96471 -9.94272 -10.8985
38 4 2 1.35534 -10.0655 -10.1243
10 2 1 -15.2185 5.59505 -12.3247
14 2 2 -16.2491 5.68554 -12.1558
13 2 2 -14.7221 6.49758 -11.9607
18 2 2 -13.1804 6.04797 -13.7876
12 2 3 -13.7019 5.34432 -14.2287
15 2 2 -14.8281 4.65555 -11.8609
4 1 2 -25.716 -8.79609 22.2301
1 1 1 -26.0452 -7.79389 22.5984
5 1 2 -26.7987 -7.99134 23.4192
6 1 2 -26.6189 -7.20121 21.8561
9 1 2 -23.6875 -7.59547 21.5924
2 1 1 -24.9164 -7.00458 23.0747
7 1 2 -24.3616 -7.53129 23.8938
3 1 3 -24.0001 -6.74267 21.9808
8 1 2 -25.2816 -5.99436 23.4648
ITEM: TIMESTEP
30000
ITEM: NUMBER OF ATOMS
38
ITEM: BOX BOUNDS pp pp pp
-2.6905500000000000e+01 2.6905500000000000e+01
-2.6905500000000000e+01 2.6905500000000000e+01
-2.6905500000000000e+01 2.6905500000000000e+01
ITEM: ATOMS id mol type x y z
27 3 2 -21.5719 -1.47296 -18.3538
21 3 3 -20.6357 -1.27802 -18.5945
24 3 2 -17.977 -0.718536 -18.5761
26 3 2 -19.8934 -0.652826 -16.7895
20 3 1 -19.9998 -0.267325 -17.825
19 3 1 -18.6434 0.190578 -18.4171
25 3 2 -20.6869 0.654782 -17.852
28 3 2 -19.4555 1.64841 -19.3986
23 3 2 -18.1226 0.834416 -17.7833
22 3 3 -18.8283 0.834782 -19.668
16 2 2 -15.3207 6.92937 -14.2144
17 2 2 -15.7656 5.19286 -14.3782
11 2 1 -15.1483 5.92272 -13.7559
37 4 2 2.82178 -13.4842 -11.3914
36 4 2 4.33749 -12.1384 -10.5664
31 4 3 2.53986 -12.4742 -11.4501
30 4 1 3.25735 -11.8592 -10.4452
35 4 2 2.88782 -12.2905 -9.42287
33 4 2 3.8106 -9.84251 -9.69235
34 4 2 3.61702 -9.93675 -11.472
29 4 1 3.15673 -10.3111 -10.4988
32 4 3 1.83619 -9.84341 -10.3493
38 4 2 1.45767 -10.1922 -9.50838
10 2 1 -15.446 5.93082 -12.2906
14 2 2 -16.492 6.17761 -11.9863
13 2 2 -14.747 6.66325 -11.7986
18 2 2 -13.3662 6.21511 -13.5668
12 2 3 -13.8551 5.62201 -14.0581
15 2 2 -15.1882 4.93669 -11.8824
4 1 2 -25.1429 -8.88242 22.8597
1 1 1 -25.7763 -7.9841 22.704
5 1 2 -26.6672 -8.00165 23.4746
6 1 2 -26.2321 -7.88471 21.6211
9 1 2 -23.2153 -7.36165 22.3171
2 1 1 -24.9576 -6.75661 22.878
7 1 2 -24.5794 -6.62025 23.9027
3 1 3 -23.8517 -6.64147 22.0609
8 1 2 -25.5576 -5.84126 22.6331
ITEM: TIMESTEP
30200
ITEM: NUMBER OF ATOMS
38
ITEM: BOX BOUNDS pp pp pp
-2.6905500000000000e+01 2.6905500000000000e+01
-2.6905500000000000e+01 2.6905500000000000e+01
-2.6905500000000000e+01 2.6905500000000000e+01
ITEM: ATOMS id mol type x y z
27 3 2 -21.3678 -1.85199 -18.6104
21 3 3 -20.5662 -1.32397 -18.9846
24 3 2 -17.9935 -0.665927 -18.2912
26 3 2 -20.1079 -0.870598 -16.9632
20 3 1 -20.1385 -0.388205 -17.9727
25 3 2 -20.8721 0.391641 -17.9707
19 3 1 -18.7866 0.0946663 -18.3249
28 3 2 -19.2753 1.49711 -19.6558
23 3 2 -18.3823 0.895345 -17.6272
22 3 3 -18.7886 0.599101 -19.6365
17 2 2 -16.3692 5.68071 -14.0641
11 2 1 -15.5201 6.17561 -13.5618
12 2 3 -14.3719 5.54142 -13.8926
18 2 2 -13.5996 6.0851 -13.5208
16 2 2 -15.5759 7.24113 -13.8838
37 4 2 3.02187 -13.2812 -11.4556
36 4 2 4.34705 -11.8732 -10.1351
31 4 3 2.83143 -12.3316 -11.4796
30 4 1 3.31676 -11.7282 -10.2809
35 4 2 2.70271 -12.0672 -9.39095
33 4 2 3.59718 -9.73505 -9.48325
34 4 2 3.70131 -9.84888 -11.218
29 4 1 3.15905 -10.1785 -10.353
32 4 3 1.82995 -9.7329 -10.5041
38 4 2 1.35698 -10.0404 -9.64529
10 2 1 -15.6037 6.22433 -12.0134
14 2 2 -16.5504 6.76304 -11.6972
15 2 2 -15.6875 5.22355 -11.5213
13 2 2 -14.7457 6.85721 -11.5892
4 1 2 -25.3314 -8.92871 22.8259
1 1 1 -25.9103 -8.11457 22.2598
5 1 2 -26.9523 -8.10724 22.6559
6 1 2 -26.0219 -8.36602 21.1674
9 1 2 -23.4427 -7.56716 22.3987
2 1 1 -25.2317 -6.82666 22.6443
7 1 2 -25.2255 -6.78374 23.8456
3 1 3 -23.9169 -6.78756 22.0594
8 1 2 -25.741 -5.94097 22.1884
ITEM: TIMESTEP
30400
ITEM: NUMBER OF ATOMS
38
ITEM: BOX BOUNDS pp pp pp
-2.6905500000000000e+01 2.6905500000000000e+01
-2.6905500000000000e+01 2.6905500000000000e+01
-2.6905500000000000e+01 2.6905500000000000e+01
ITEM: ATOMS id mol type x y z
27 3 2 -21.4849 -1.97308 -18.3164
21 3 3 -20.5749 -1.59227 -18.5965
24 3 2 -18.0868 -0.578503 -18.2548
26 3 2 -19.9905 -0.882771 -16.7774
20 3 1 -20.2244 -0.463247 -17.7883
25 3 2 -20.8863 0.413181 -17.8226
19 3 1 -18.8985 0.117565 -18.2035
28 3 2 -19.628 1.32374 -19.7978
23 3 2 -18.6183 0.977211 -17.4919
22 3 3 -18.9682 0.55885 -19.6071
17 2 2 -16.3158 5.6412 -13.6514
11 2 1 -15.2958 6.06613 -13.3741
12 2 3 -14.2821 5.25284 -13.75
18 2 2 -13.3916 5.65706 -13.5323
16 2 2 -15.2109 7.08048 -13.8825
37 4 2 3.12948 -13.1085 -11.4554
36 4 2 4.11292 -12.0423 -9.87464
31 4 3 3.17212 -12.0844 -11.6519
30 4 1 3.15086 -11.5707 -10.3219
35 4 2 2.25109 -11.9644 -9.68088
33 4 2 3.16777 -9.77667 -9.18959
34 4 2 4.01254 -9.64607 -10.7286
29 4 1 3.09036 -10.0815 -10.1902
32 4 3 1.93813 -9.54949 -10.8054
38 4 2 1.12056 -9.65346 -10.2543
10 2 1 -15.3192 6.13336 -11.8314
14 2 2 -16.1223 6.83131 -11.5228
15 2 2 -15.5886 5.07997 -11.4375
13 2 2 -14.3672 6.51136 -11.5014
4 1 2 -25.5414 -9.22725 22.62
1 1 1 -26.0668 -8.31118 22.2045
5 1 2 26.724 -8.233 22.482
6 1 2 -26.0396 -8.31804 21.0443
9 1 2 -23.5115 -7.72646 22.3799
2 1 1 -25.2465 -7.12009 22.7632
7 1 2 -25.2135 -7.25177 23.8626
3 1 3 -24.0293 -6.95559 22.1049
8 1 2 -25.8566 -6.22973 22.5275
ITEM: TIMESTEP
30600
ITEM: NUMBER OF ATOMS
38
ITEM: BOX BOUNDS pp pp pp
-2.6905500000000000e+01 2.6905500000000000e+01
-2.6905500000000000e+01 2.6905500000000000e+01
-2.6905500000000000e+01 2.6905500000000000e+01
ITEM: ATOMS id mol type x y z
27 3 2 -22.0964 -1.32698 -17.9786
21 3 3 -21.2172 -1.24052 -18.3978
24 3 2 -18.5299 -1.13066 -18.2727
26 3 2 -20.2894 -0.856458 -16.5996
20 3 1 -20.4598 -0.395025 -17.5454
25 3 2 -20.881 0.650904 -17.3594
19 3 1 -19.1003 -0.166979 -18.2135
28 3 2 -19.6168 1.26859 -19.4398
23 3 2 -18.4926 0.423502 -17.4934
22 3 3 -19.2023 0.407306 -19.459
17 2 2 -16.4297 6.29368 -13.7427
11 2 1 -15.454 6.29876 -13.1697
12 2 3 -14.5404 5.50261 -13.8274
18 2 2 -13.675 5.52526 -13.2808
16 2 2 -15.1334 7.39465 -13.1344
37 4 2 3.15811 -13.0294 -11.98
36 4 2 4.13516 -12.1066 -10.0636
31 4 3 2.99436 -12.0542 -11.7968
30 4 1 3.1524 -11.6644 -10.4529
35 4 2 2.38019 -12.0651 -9.86412
33 4 2 3.2737 -9.76014 -9.32337
34 4 2 3.86532 -9.7119 -11.0649
29 4 1 3.1212 -10.1519 -10.3618
32 4 3 1.91254 -9.63465 -10.8584
38 4 2 1.3242 -9.80755 -10.0598
10 2 1 -15.7645 5.75261 -11.8226
14 2 2 -16.4982 6.4637 -11.4017
15 2 2 -16.2205 4.76048 -11.8574
13 2 2 -14.8793 5.72833 -11.2259
4 1 2 -25.6732 -9.0099 23.1705
1 1 1 -26.0291 -8.34618 22.3369
5 1 2 26.7293 -8.13906 22.5016
6 1 2 -25.8705 -8.79566 21.3599
9 1 2 -23.6805 -7.88178 23.1208
2 1 1 -25.2597 -7.04216 22.3732
7 1 2 -25.5039 -6.45418 23.2613
3 1 3 -23.8609 -7.34311 22.3296
8 1 2 -25.5591 -6.37216 21.5097
ITEM: TIMESTEP
30800
ITEM: NUMBER OF ATOMS
38
ITEM: BOX BOUNDS pp pp pp
-2.6905500000000000e+01 2.6905500000000000e+01
-2.6905500000000000e+01 2.6905500000000000e+01
-2.6905500000000000e+01 2.6905500000000000e+01
ITEM: ATOMS id mol type x y z
27 3 2 -21.7709 -1.83025 -17.7972
21 3 3 -20.9322 -1.48657 -18.2213
24 3 2 -18.3528 -0.629637 -18.2663
26 3 2 -20.0236 -0.637667 -16.6914
20 3 1 -20.3676 -0.343723 -17.6472
25 3 2 -21.0759 0.464456 -17.5737
19 3 1 -19.1291 0.13979 -18.4543
28 3 2 -20.0457 1.22766 -19.8105
23 3 2 -18.789 1.05668 -17.9468
22 3 3 -19.3483 0.519795 -19.8467
17 2 2 -16.1405 5.70569 -13.5806
11 2 1 -15.2358 6.11036 -13.0716
12 2 3 -14.0557 5.77552 -13.7506
18 2 2 -13.3005 6.24993 -13.2381
16 2 2 -15.3006 7.30216 -12.9919
37 4 2 2.3669 -13.0413 -11.5933
36 4 2 4.15808 -11.8775 -10.2836
31 4 3 2.48416 -12.0308 -11.5879
30 4 1 3.02982 -11.5323 -10.3757
35 4 2 2.43511 -11.8299 -9.44166
33 4 2 3.63277 -9.65524 -9.6439
34 4 2 3.7813 -9.79781 -11.4853
29 4 1 3.12977 -10.031 -10.5789
32 4 3 1.83991 -9.52998 -10.6907
38 4 2 1.21295 -9.86262 -10.0177
10 2 1 -15.1444 5.59349 -11.6296
14 2 2 -15.9807 5.92048 -10.9866
15 2 2 -15.2331 4.49009 -11.7134
13 2 2 -14.181 5.79292 -11.0867
4 1 2 -26.232 -8.85192 22.8868
1 1 1 -26.2262 -8.04925 22.2057
5 1 2 26.6316 -7.64846 22.1632
6 1 2 -26.0575 -8.58092 21.2133
9 1 2 -23.8732 -7.9087 23.4918
2 1 1 -25.2688 -6.95565 22.5291
7 1 2 -25.5785 -6.42227 23.4744
3 1 3 -23.956 -7.40707 22.5628
8 1 2 -25.3659 -6.21036 21.7057
ITEM: TIMESTEP
31000
ITEM: NUMBER OF ATOMS
38
ITEM: BOX BOUNDS pp pp pp
-2.6905500000000000e+01 2.6905500000000000e+01
-2.6905500000000000e+01 2.6905500000000000e+01
-2.6905500000000000e+01 2.6905500000000000e+01
ITEM: ATOMS id mol type x y z
27 3 2 -21.3156 -2.03287 -18.224
21 3 3 -20.6335 -1.48124 -18.5823
24 3 2 -18.2776 -0.274973 -18.3041
26 3 2 -19.9881 -0.946726 -16.7841
20 3 1 -20.3351 -0.43311 -17.653
25 3 2 -21.2259 0.181673 -17.4524
19 3 1 -19.1944 0.372911 -18.2196
28 3 2 -20.339 1.45473 -19.3907
23 3 2 -18.9971 1.12438 -17.4473
22 3 3 -19.519 0.936808 -19.4723
17 2 2 -15.9913 5.74187 -13.444
11 2 1 -15.2296 6.30823 -12.8206
12 2 3 -14.0443 6.24081 -13.5746
18 2 2 -13.3401 6.80059 -13.1504
16 2 2 -15.5557 7.30244 -12.7319
37 4 2 2.7674 -13.0336 -10.637
36 4 2 4.34626 -11.4248 -10.3512
31 4 3 2.57192 -12.1235 -11.0267
30 4 1 3.27007 -11.2377 -10.2486
35 4 2 3.08635 -11.4106 -9.14874
33 4 2 3.83887 -9.0762 -10.1122
34 4 2 3.28145 -9.63846 -11.8016
29 4 1 3.04564 -9.7573 -10.6454
32 4 3 1.77987 -9.15726 -10.3532
38 4 2 1.60293 -9.27155 -9.35889
10 2 1 -15.1483 5.59624 -11.4719
14 2 2 -16.081 5.78389 -10.9558
15 2 2 -14.8816 4.55867 -11.733
13 2 2 -14.337 6.09519 -10.9389
4 1 2 -25.9909 -8.86681 21.6294
1 1 1 -25.8414 -7.76232 21.3833
5 1 2 -26.8748 -7.43532 21.2226
6 1 2 -25.2554 -7.74713 20.4378
9 1 2 -23.99 -8.63926 22.8319
2 1 1 -25.1176 -7.1157 22.6145
7 1 2 -25.7637 -7.31932 23.5081
3 1 3 -23.8035 -7.65016 22.8701
8 1 2 -25.1058 -6.01834 22.5485
ITEM: TIMESTEP
31200
ITEM: NUMBER OF ATOMS
38
ITEM: BOX BOUNDS pp pp pp
-2.6905500000000000e+01 2.6905500000000000e+01
-2.6905500000000000e+01 2.6905500000000000e+01
-2.6905500000000000e+01 2.6905500000000000e+01
ITEM: ATOMS id mol type x y z
27 3 2 -21.414 -2.11859 -18.3438
21 3 3 -20.6784 -1.59707 -18.6222
24 3 2 -18.3962 -0.357607 -18.126
26 3 2 -20.2374 -1.14517 -16.7115
20 3 1 -20.4609 -0.662937 -17.7193
25 3 2 -21.4496 -0.13679 -17.6888
19 3 1 -19.3147 0.299054 -18.0861
28 3 2 -20.2597 1.57234 -19.1609
23 3 2 -19.1519 1.06369 -17.2089
22 3 3 -19.4189 1.02505 -19.2756
17 2 2 -16.083 6.0542 -13.4053
11 2 1 -15.1041 6.20773 -12.931
12 2 3 -14.0447 5.76865 -13.6923
18 2 2 -13.1757 6.11956 -13.408
16 2 2 -15.0503 7.32021 -12.9602
37 4 2 2.71436 -13.0654 -10.4752
36 4 2 4.38005 -11.6574 -10.4742
31 4 3 2.47588 -12.1756 -10.8758
30 4 1 3.33518 -11.2892 -10.2413
35 4 2 3.13117 -11.3893 -9.16655
33 4 2 3.75387 -9.17725 -10.2059
34 4 2 3.16636 -9.74128 -11.7655
29 4 1 3.03762 -9.85037 -10.7176
32 4 3 1.66454 -9.523 -10.3637
38 4 2 1.53095 -9.65927 -9.40949
10 2 1 -15.2175 5.70467 -11.5013
14 2 2 -16.1133 6.01208 -10.9052
15 2 2 -15.1923 4.63267 -11.5327
13 2 2 -14.2688 6.02062 -10.9047
4 1 2 -26.4854 -8.67887 21.8471
1 1 1 -26.1161 -7.73519 21.3386
5 1 2 -26.9301 -7.11401 20.85
6 1 2 -25.5155 -8.15579 20.4969
9 1 2 -24.3633 -8.42328 23.0489
2 1 1 -25.1955 -6.85071 22.207
7 1 2 -25.6812 -6.46128 23.0748
3 1 3 -24.0814 -7.55651 22.6684
8 1 2 -24.8015 -5.94482 21.6051
ITEM: TIMESTEP
31400
ITEM: NUMBER OF ATOMS
38
ITEM: BOX BOUNDS pp pp pp
-2.6905500000000000e+01 2.6905500000000000e+01
-2.6905500000000000e+01 2.6905500000000000e+01
-2.6905500000000000e+01 2.6905500000000000e+01
ITEM: ATOMS id mol type x y z
27 3 2 -21.3789 -2.24041 -18.6859
21 3 3 -20.5534 -1.73993 -18.758
26 3 2 -20.2906 -1.52675 -16.679
20 3 1 -20.4986 -0.871784 -17.6058
25 3 2 -21.4658 -0.279415 -17.4407
24 3 2 -18.428 -0.514617 -17.9231
28 3 2 -20.1534 1.44705 -18.9482
19 3 1 -19.3443 0.0371065 -17.8084
23 3 2 -19.2176 0.780712 -17.0479
22 3 3 -19.4574 0.775731 -19.07
17 2 2 -15.8731 6.25062 -13.9969
12 2 3 -13.8165 6.19257 -14.0158
37 4 2 2.33 -13.0939 -10.6518
36 4 2 4.0777 -11.7405 -9.81761
31 4 3 2.41438 -12.1205 -10.9211
30 4 1 3.03362 -11.3659 -9.95953
35 4 2 2.53004 -11.384 -8.99002
33 4 2 3.77516 -9.38755 -9.64646
34 4 2 3.62324 -9.82718 -11.3986
29 4 1 3.12505 -9.86234 -10.4107
32 4 3 1.87321 -9.22144 -10.5116
38 4 2 1.56398 -9.23421 -9.57077
11 2 1 -15.0075 6.60115 -13.3993
10 2 1 -15.2227 6.12418 -11.9468
14 2 2 -16.2513 6.49905 -11.6256
15 2 2 -15.1981 5.08779 -11.7531
13 2 2 -14.4009 6.57424 -11.3465
18 2 2 -13.0207 6.44543 -13.3808
16 2 2 -14.9588 7.73131 -13.3725
4 1 2 -26.8008 -8.04894 21.953
1 1 1 -26.2133 -7.32838 21.3934
5 1 2 -26.8987 -6.50865 21.0732
6 1 2 -25.8752 -7.8835 20.5179
9 1 2 -24.6066 -8.58548 23.0756
2 1 1 -24.9813 -6.89757 22.1604
3 1 3 -24.0763 -7.95793 22.4703
7 1 2 -25.4053 -6.43502 23.087
8 1 2 -24.371 -6.10617 21.5373
ITEM: TIMESTEP
31600
ITEM: NUMBER OF ATOMS
38
ITEM: BOX BOUNDS pp pp pp
-2.6905500000000000e+01 2.6905500000000000e+01
-2.6905500000000000e+01 2.6905500000000000e+01
-2.6905500000000000e+01 2.6905500000000000e+01
ITEM: ATOMS id mol type x y z
27 3 2 -21.9721 -2.31268 -18.645
21 3 3 -21.0548 -1.8815 -18.8258
26 3 2 -20.6357 -1.68113 -16.8356
20 3 1 -20.71 -1.12129 -17.7392
25 3 2 -21.4894 -0.267816 -17.665
24 3 2 -18.6362 -1.22839 -18.0627
28 3 2 -19.974 1.02256 -19.029
19 3 1 -19.3591 -0.453116 -17.9086
23 3 2 -19.0662 0.0087613 -16.9195
22 3 3 -19.2453 0.398738 -19.0373
17 2 2 -15.9895 6.94465 -13.7433
12 2 3 -14.1592 5.98844 -13.6485
37 4 2 1.62248 -13.0556 -10.5166
36 4 2 3.41827 -12.0977 -9.56763
31 4 3 1.91188 -12.1407 -10.8721
30 4 1 2.56002 -11.4743 -9.85401
35 4 2 1.89913 -11.3376 -8.9457
33 4 2 3.82861 -9.70856 -9.40886
34 4 2 3.97097 -10.3198 -11.0253
29 4 1 3.20304 -10.1181 -10.2401
32 4 3 2.28896 -9.25667 -10.7102
38 4 2 1.61346 -9.22992 -9.9365
11 2 1 -15.0347 6.93779 -13.0824
10 2 1 -15.359 6.5267 -11.6554
14 2 2 -16.0913 7.30274 -11.2273
15 2 2 -15.8622 5.4426 -11.6762
13 2 2 -14.4272 6.42457 -10.9985
18 2 2 -13.2547 5.84285 -13.1204
16 2 2 -14.5472 7.93698 -12.9053
4 1 2 26.8048 -7.72127 21.8776
1 1 1 -26.4318 -6.88477 21.4507
5 1 2 26.7853 -5.93262 21.5564
6 1 2 -26.3182 -7.17714 20.411
9 1 2 -24.7208 -8.48575 22.7473
2 1 1 -25.1318 -6.68819 22.1924
3 1 3 -24.3545 -7.77031 22.1772
7 1 2 -25.3281 -6.44004 23.2247
8 1 2 -24.5229 -5.89239 21.6459
ITEM: TIMESTEP
31800
ITEM: NUMBER OF ATOMS
38
ITEM: BOX BOUNDS pp pp pp
-2.6905500000000000e+01 2.6905500000000000e+01
-2.6905500000000000e+01 2.6905500000000000e+01
-2.6905500000000000e+01 2.6905500000000000e+01
ITEM: ATOMS id mol type x y z
27 3 2 -21.953 -2.47842 -19.1183
21 3 3 -21.0617 -2.04992 -19.1139
26 3 2 -20.7817 -2.01066 -17.0645
20 3 1 -20.8738 -1.32273 -17.917
25 3 2 -21.6938 -0.561049 -17.6975
24 3 2 -18.729 -1.14257 -18.5863
28 3 2 -20.3776 1.11052 -18.6832
19 3 1 -19.5477 -0.535797 -18.126
23 3 2 -19.2072 -0.212427 -17.0931
22 3 3 -19.6615 0.529561 -19.0129
17 2 2 -16.081 6.30413 -13.519
12 2 3 -14.2562 5.61161 -13.7231
37 4 2 1.7682 -13.2975 -9.99345
36 4 2 3.66823 -12.3105 -9.13905
31 4 3 2.00358 -12.4468 -10.4128
30 4 1 2.73421 -11.7409 -9.49831
35 4 2 2.10399 -11.4176 -8.62816
33 4 2 3.7899 -9.89166 -9.44992
34 4 2 3.67503 -10.5952 -11.0093
29 4 1 3.06864 -10.4065 -10.1335
32 4 3 2.09337 -9.45815 -10.5435
38 4 2 1.40442 -9.319 -9.79536
11 2 1 -15.1216 6.55452 -13.1685
10 2 1 -15.1621 6.33724 -11.6678
14 2 2 -15.9067 7.04484 -11.1533
15 2 2 -15.5671 5.31696 -11.3175
13 2 2 -14.2026 6.47469 -11.1844
18 2 2 -13.3547 5.79151 -13.3952
16 2 2 -14.7808 7.6412 -13.3636
4 1 2 -26.4432 -7.95848 21.6044
1 1 1 -25.8732 -6.98191 21.466
5 1 2 27.2585 -6.1955 21.277
6 1 2 -25.2188 -6.98514 20.5583
9 1 2 -24.4513 -8.6237 22.9573
2 1 1 -25.0304 -6.7012 22.6202
3 1 3 -24.018 -7.79408 22.7406
7 1 2 -25.5965 -6.66305 23.5584
8 1 2 -24.5135 -5.74346 22.4492
ITEM: TIMESTEP
32000
ITEM: NUMBER OF ATOMS
38
ITEM: BOX BOUNDS pp pp pp
-2.6905500000000000e+01 2.6905500000000000e+01
-2.6905500000000000e+01 2.6905500000000000e+01
-2.6905500000000000e+01 2.6905500000000000e+01
ITEM: ATOMS id mol type x y z
27 3 2 -21.6286 -2.85296 -18.7301
21 3 3 -21.3481 -1.91727 -18.954
26 3 2 -20.121 -2.19359 -17.2763
20 3 1 -20.6595 -1.37289 -17.8562
25 3 2 -21.3605 -0.797715 -17.1685
24 3 2 -18.6492 -0.947601 -18.9223
28 3 2 -20.6675 0.988761 -18.7135
19 3 1 -19.4762 -0.509499 -18.3056
23 3 2 -18.9631 -0.0315121 -17.426
22 3 3 -19.9642 0.515918 -19.1501
17 2 2 -16.2755 5.97489 -13.2462
12 2 3 -14.3597 5.4243 -13.8203
37 4 2 2.30806 -13.451 -10.1037
36 4 2 3.55338 -12.1414 -8.80743
31 4 3 2.2998 -12.5201 -10.3489
30 4 1 2.70726 -11.6245 -9.29935
35 4 2 1.90948 -11.5966 -8.51496
33 4 2 3.64578 -9.71578 -8.99951
34 4 2 3.91096 -10.3189 -10.6364
29 4 1 3.15172 -10.2151 -9.85167
32 4 3 2.10365 -9.44858 -10.3166
38 4 2 1.40399 -9.36137 -9.58155
11 2 1 -15.1909 6.36467 -13.1693
10 2 1 -14.7249 6.67667 -11.7355
14 2 2 -15.3936 7.35867 -11.2185
15 2 2 -14.6804 5.69913 -11.2563
13 2 2 -13.6987 7.1458 -11.7196
18 2 2 -13.4625 5.84612 -13.8829
16 2 2 -15.1739 7.3061 -13.7937
4 1 2 -26.7706 -6.88513 22.1614
1 1 1 -25.983 -6.94375 21.3844
5 1 2 -26.0276 -6.03209 20.7817
6 1 2 -26.0872 -7.8522 20.7705
9 1 2 -24.9726 -7.64304 23.7572
2 1 1 -24.5947 -6.93785 22.0149
3 1 3 -24.293 -7.84651 23.0151
7 1 2 -24.4226 -5.96665 22.5284
8 1 2 -23.8212 -7.05037 21.233
ITEM: TIMESTEP
32200
ITEM: NUMBER OF ATOMS
38
ITEM: BOX BOUNDS pp pp pp
-2.6905500000000000e+01 2.6905500000000000e+01
-2.6905500000000000e+01 2.6905500000000000e+01
-2.6905500000000000e+01 2.6905500000000000e+01
ITEM: ATOMS id mol type x y z
27 3 2 -22.0744 -2.369 -17.9572
21 3 3 -21.3757 -1.79331 -18.4612
26 3 2 -20.0768 -2.09015 -16.8196
20 3 1 -20.5509 -1.26262 -17.4925
25 3 2 -21.154 -0.562494 -16.7923
24 3 2 -18.7374 -1.14602 -18.7778
19 3 1 -19.3995 -0.453917 -18.2082
23 3 2 -18.7804 -0.0388088 -17.3499
28 3 2 -20.4803 1.14931 -18.4894
22 3 3 -19.885 0.559258 -19.0949
12 2 3 -14.3948 4.88239 -13.6675
18 2 2 -13.3894 4.76035 -13.3949
16 2 2 -14.4428 6.9299 -13.7709
37 4 2 1.87809 -13.2799 -9.27406
36 4 2 3.68417 -12.0164 -8.65634
31 4 3 1.9746 -12.3922 -9.78171
30 4 1 2.7027 -11.5406 -9.02173
35 4 2 2.119 -11.2742 -8.12482
33 4 2 3.55055 -9.49853 -9.09934
34 4 2 3.55038 -10.3885 -10.6354
29 4 1 2.98634 -10.201 -9.76174
32 4 3 1.78758 -9.61689 -10.214
38 4 2 1.30032 -9.34982 -9.39402
17 2 2 -15.9503 6.13014 -13.6177
11 2 1 -14.9328 6.17573 -13.2441
10 2 1 -14.9232 6.41781 -11.6984
15 2 2 -15.5183 5.55899 -11.2914
14 2 2 -15.4155 7.32868 -11.4107
13 2 2 -13.9077 6.44494 -11.3547
4 1 2 -26.6954 -6.18255 22.21
1 1 1 -25.9463 -6.61716 21.4982
6 1 2 -26.3643 -7.62548 21.1389
9 1 2 -25.2029 -7.40516 23.8183
2 1 1 -24.5526 -6.80969 22.1275
3 1 3 -24.6123 -7.76295 23.1583
8 1 2 -23.6886 -7.18047 21.4994
5 1 2 -26.0384 -5.96109 20.6392
7 1 2 -24.304 -5.84607 22.6335
ITEM: TIMESTEP
32400
ITEM: NUMBER OF ATOMS
38
ITEM: BOX BOUNDS pp pp pp
-2.6905500000000000e+01 2.6905500000000000e+01
-2.6905500000000000e+01 2.6905500000000000e+01
-2.6905500000000000e+01 2.6905500000000000e+01
ITEM: ATOMS id mol type x y z
27 3 2 -21.9535 -2.29172 -18.0903
21 3 3 -21.3654 -1.56648 -18.521
26 3 2 -20.0092 -1.75655 -17.041
20 3 1 -20.5809 -1.0088 -17.5482
25 3 2 -21.1497 -0.487288 -16.7745
24 3 2 -18.9019 -0.662451 -18.83
19 3 1 -19.6444 -0.0901674 -18.2504
23 3 2 -18.9772 0.468303 -17.535
28 3 2 -20.908 1.39161 -18.5242
22 3 3 -20.2856 0.860139 -19.1519
12 2 3 -14.4979 4.7458 -13.5674
18 2 2 -13.5963 4.89161 -13.4603
16 2 2 -14.9118 6.70297 -14.0526
37 4 2 1.74195 -13.0379 -8.88503
36 4 2 3.66812 -12.0205 -8.86487
31 4 3 1.76242 -12.2796 -9.57094
30 4 1 2.69429 -11.454 -8.92803
35 4 2 2.33073 -11.2178 -7.909
33 4 2 3.56523 -9.42743 -9.1743
34 4 2 3.33162 -10.2755 -10.5549
29 4 1 2.85087 -10.0949 -9.64612
32 4 3 1.65932 -9.36219 -9.84874
38 4 2 1.29208 -9.02983 -9.01759
17 2 2 -16.2325 5.55589 -13.5679
11 2 1 -15.2391 5.89829 -13.3042
10 2 1 -15.1629 6.41143 -11.8712
15 2 2 -15.5905 5.65213 -11.1875
14 2 2 -15.7025 7.3895 -11.7656
13 2 2 -14.1177 6.61107 -11.5106
4 1 2 -26.5551 -6.90425 22.273
1 1 1 -25.6902 -6.97411 21.4722
6 1 2 -25.6365 -8.01606 21.0608
9 1 2 -24.8931 -7.75393 23.8838
2 1 1 -24.4162 -6.66393 22.1775
3 1 3 -24.1776 -7.61993 23.2013
8 1 2 -23.535 -6.82059 21.46
5 1 2 -25.8798 -6.2048 20.7264
7 1 2 -24.5102 -5.63454 22.4679
ITEM: TIMESTEP
32600
ITEM: NUMBER OF ATOMS
38
ITEM: BOX BOUNDS pp pp pp
-2.6905500000000000e+01 2.6905500000000000e+01
-2.6905500000000000e+01 2.6905500000000000e+01
-2.6905500000000000e+01 2.6905500000000000e+01
ITEM: ATOMS id mol type x y z
27 3 2 -21.9735 -2.5754 -18.1305
21 3 3 -21.3907 -1.86092 -18.4768
26 3 2 -20.4806 -1.68779 -16.5348
20 3 1 -20.9017 -1.05165 -17.3468
25 3 2 -21.7237 -0.501183 -16.9203
24 3 2 -19.0296 -0.391592 -18.3347
19 3 1 -19.9337 0.0102636 -17.8949
23 3 2 -19.4865 0.589861 -17.0742
28 3 2 -21.0969 1.50204 -18.3582
22 3 3 -20.514 0.846453 -18.8359
12 2 3 -14.994 4.92911 -13.9014
18 2 2 -14.0095 4.98623 -14.0197
16 2 2 -15.3923 6.94921 -13.7638
37 4 2 1.47651 -13.0583 -8.75988
36 4 2 3.44525 -12.1406 -8.97044
31 4 3 1.45907 -12.3069 -9.38659
30 4 1 2.54558 -11.5337 -8.91783
35 4 2 2.31545 -11.141 -7.89388
33 4 2 3.78008 -9.7807 -9.34856
34 4 2 2.94609 -10.4904 -10.7817
29 4 1 2.78194 -10.2581 -9.72817
32 4 3 1.69546 -9.33688 -9.83034
38 4 2 1.58892 -9.04072 -8.92135
17 2 2 -16.7048 5.75725 -13.0289
11 2 1 -15.5687 6.01658 -13.183
10 2 1 -14.9624 6.31217 -11.83
15 2 2 -15.0886 5.49137 -11.0777
14 2 2 -15.4273 7.24195 -11.515
13 2 2 -13.8645 6.47709 -12.0175
4 1 2 -26.3803 -7.17533 22.4662
1 1 1 -25.6355 -7.26715 21.6526
6 1 2 -25.5609 -8.34003 21.3892
9 1 2 -24.7479 -6.9938 24.0286
2 1 1 -24.2285 -6.76119 22.1451
3 1 3 -24.0845 -7.37669 23.469
8 1 2 -23.4597 -7.09242 21.4021
5 1 2 -25.9315 -6.67184 20.7471
7 1 2 -24.1359 -5.60947 22.2432
ITEM: TIMESTEP
32800
ITEM: NUMBER OF ATOMS
38
ITEM: BOX BOUNDS pp pp pp
-2.6905500000000000e+01 2.6905500000000000e+01
-2.6905500000000000e+01 2.6905500000000000e+01
-2.6905500000000000e+01 2.6905500000000000e+01
ITEM: ATOMS id mol type x y z
27 3 2 -22.095 -2.651 -18.5955
21 3 3 -21.4986 -1.86174 -18.7233
26 3 2 -20.5823 -2.09609 -16.8293
20 3 1 -21.0984 -1.37928 -17.4439
25 3 2 -22.0606 -1.03298 -16.8794
24 3 2 -19.1658 -0.440642 -18.0817
19 3 1 -20.1763 -0.102081 -17.6744
23 3 2 -19.9812 0.419128 -16.7336
28 3 2 -21.6226 1.08189 -18.3404
22 3 3 -20.7308 0.80172 -18.5722
12 2 3 -15.4329 4.80496 -13.9626
18 2 2 -14.6564 5.21909 -14.4226
16 2 2 -16.0221 6.74881 -13.8538
37 4 2 1.20484 -13.0292 -8.5984
36 4 2 3.28894 -11.9637 -8.28188
31 4 3 1.50672 -12.3408 -9.23005
30 4 1 2.38945 -11.4538 -8.58117
35 4 2 2.03768 -11.2037 -7.63673
33 4 2 3.45407 -9.47035 -8.82018
34 4 2 3.34308 -10.3255 -10.3852
29 4 1 2.78896 -10.1541 -9.4048
32 4 3 1.62854 -9.36291 -9.5278
38 4 2 1.24504 -9.06131 -8.68581
17 2 2 -16.8929 5.58653 -12.8686
11 2 1 -15.8665 5.84532 -13.1967
10 2 1 -14.9367 6.15191 -12.0301
15 2 2 -14.9986 5.31549 -11.276
14 2 2 -15.1666 7.00698 -11.3921
13 2 2 -13.9425 6.28325 -12.3462
4 1 2 -26.3205 -7.89597 21.5839
1 1 1 -25.23 -7.62045 21.3632
6 1 2 -24.5714 -8.51866 21.1012
9 1 2 -25.356 -7.89634 23.9568
2 1 1 -24.7172 -6.74106 22.4675
3 1 3 -24.4456 -7.57026 23.5962
8 1 2 -23.7605 -6.35025 22.2268
5 1 2 -25.3377 -6.98046 20.4516
7 1 2 -25.377 -5.83299 22.6756
ITEM: TIMESTEP
33000
ITEM: NUMBER OF ATOMS
38
ITEM: BOX BOUNDS pp pp pp
-2.6905500000000000e+01 2.6905500000000000e+01
-2.6905500000000000e+01 2.6905500000000000e+01
-2.6905500000000000e+01 2.6905500000000000e+01
ITEM: ATOMS id mol type x y z
27 3 2 -22.3379 -2.39906 -17.9528
21 3 3 -21.7982 -1.58763 -18.2042
26 3 2 -20.6455 -1.52063 -16.5376
20 3 1 -21.2623 -0.831753 -17.1779
25 3 2 -22.0163 -0.511027 -16.5356
24 3 2 -19.6137 -0.227137 -18.2367
19 3 1 -20.3513 0.308801 -17.6745
23 3 2 -19.8415 0.745296 -16.7409
28 3 2 -21.7035 1.7192 -17.9197
22 3 3 -20.9954 1.28355 -18.482
12 2 3 -15.2922 4.70903 -13.9862
18 2 2 -14.3386 4.92551 -14.2706
16 2 2 -15.6539 6.75608 -13.7668
37 4 2 1.67805 -13.1013 -9.58216
36 4 2 3.2434 -11.8815 -8.23598
31 4 3 1.99673 -12.2043 -9.89701
30 4 1 2.3516 -11.427 -8.81867
35 4 2 1.45584 -11.3159 -8.13651
33 4 2 3.08442 -9.4219 -8.52543
34 4 2 3.50767 -10.0512 -10.1587
29 4 1 2.72531 -10.0469 -9.35886
32 4 3 1.6481 -9.41805 -10.0569
38 4 2 0.873076 -9.24495 -9.4738
17 2 2 -16.7298 5.59489 -12.8035
11 2 1 -15.7011 5.8186 -13.1457
10 2 1 -14.8529 5.90859 -11.8697
15 2 2 -14.9851 4.96016 -11.2541
14 2 2 -15.2465 6.77438 -11.2807
13 2 2 -13.8359 6.11466 -12.1832
4 1 2 -25.9769 -8.01656 21.4445
1 1 1 -25.1217 -7.33389 21.3677
6 1 2 -24.2472 -7.93337 21.3039
9 1 2 -25.7899 -7.86152 23.6907
2 1 1 -25.0566 -6.5162 22.5391
3 1 3 -24.9083 -7.34804 23.6441
8 1 2 -24.125 -5.88274 22.5783
5 1 2 -25.3155 -6.66321 20.5227
7 1 2 -25.9522 -5.87993 22.5825
ITEM: TIMESTEP
33200
ITEM: NUMBER OF ATOMS
38
ITEM: BOX BOUNDS pp pp pp
-2.6905500000000000e+01 2.6905500000000000e+01
-2.6905500000000000e+01 2.6905500000000000e+01
-2.6905500000000000e+01 2.6905500000000000e+01
ITEM: ATOMS id mol type x y z
27 3 2 -22.1238 -2.33595 -17.6311
21 3 3 -21.8118 -1.46573 -18.0241
26 3 2 -20.4139 -1.40797 -16.4952
20 3 1 -21.2242 -0.78088 -16.9155
25 3 2 -21.9898 -0.645024 -16.1376
19 3 1 -20.5714 0.605596 -17.3556
28 3 2 -22.1783 1.83302 -17.261
22 3 3 -21.492 1.50572 -17.9774
24 3 2 -19.7613 0.366256 -18.1198
23 3 2 -20.1458 1.11579 -16.4819
12 2 3 -14.7226 5.34143 -13.8415
18 2 2 -13.7674 5.66016 -13.8063
37 4 2 1.57063 -13.0102 -9.08263
36 4 2 3.08179 -11.5889 -8.09345
31 4 3 1.89335 -12.2741 -9.71892
30 4 1 2.23638 -11.2453 -8.7876
35 4 2 1.32224 -11.0549 -8.09949
33 4 2 2.91404 -9.15738 -8.62218
34 4 2 3.70899 -10.1938 -9.89479
29 4 1 2.69698 -9.95219 -9.40234
32 4 3 1.82787 -9.45454 -10.3836
38 4 2 0.932872 -9.32704 -9.90294
17 2 2 -16.5673 6.1389 -13.2157
11 2 1 -15.4896 6.20642 -13.0137
10 2 1 -15.2433 5.98254 -11.5226
15 2 2 -15.5239 4.96393 -11.1418
14 2 2 -15.8278 6.6189 -10.9259
13 2 2 -14.1114 6.06086 -11.2936
16 2 2 -15.2602 7.22758 -13.2574
4 1 2 -25.8498 -7.97757 20.961
1 1 1 -25.0785 -7.20742 21.1421
6 1 2 -24.0698 -7.77853 21.2052
9 1 2 -25.9637 -7.96547 23.513
3 1 3 -25.1795 -7.45068 23.5499
2 1 1 -25.2676 -6.50142 22.5086
8 1 2 -24.3676 -5.87116 22.569
5 1 2 -24.9675 -6.52596 20.2676
7 1 2 -26.1167 -5.84419 22.5696
ITEM: TIMESTEP
33400
ITEM: NUMBER OF ATOMS
38
ITEM: BOX BOUNDS pp pp pp
-2.6905500000000000e+01 2.6905500000000000e+01
-2.6905500000000000e+01 2.6905500000000000e+01
-2.6905500000000000e+01 2.6905500000000000e+01
ITEM: ATOMS id mol type x y z
27 3 2 -21.5076 -2.00369 -17.8889
21 3 3 -21.2153 -1.07997 -18.2044
26 3 2 -20.2826 -1.05905 -16.4157
20 3 1 -20.9281 -0.446738 -16.9899
25 3 2 -21.8309 -0.381329 -16.3455
19 3 1 -20.2639 0.931452 -17.182
28 3 2 -21.9047 1.90108 -17.3512
22 3 3 -21.0616 1.82762 -17.8824
24 3 2 -19.2949 0.837377 -17.7255
23 3 2 -19.9309 1.38289 -16.2114
12 2 3 -14.9478 5.49708 -13.8115
18 2 2 -13.9311 5.53933 -13.884
37 4 2 1.69968 -13.1412 -9.2073
36 4 2 2.63007 -11.7152 -7.73389
31 4 3 2.11309 -12.3711 -9.67015
30 4 1 2.18591 -11.3466 -8.71544
35 4 2 1.10138 -11.1608 -8.49829
33 4 2 2.69436 -9.32566 -8.28507
34 4 2 3.90058 -10.1932 -9.34541
29 4 1 2.81297 -10.0067 -9.10991
32 4 3 2.27024 -9.41039 -10.3623
38 4 2 1.28415 -9.1472 -10.1893
17 2 2 -16.4674 6.51118 -12.7374
11 2 1 -15.3667 6.25435 -12.6873
10 2 1 -15.0949 5.60154 -11.3095
15 2 2 -15.6657 4.6854 -11.1838
14 2 2 -15.336 6.3396 -10.4608
13 2 2 -14.054 5.31909 -11.2095
16 2 2 -14.8549 7.25909 -12.8034
4 1 2 -25.7464 -7.51784 20.6405
1 1 1 -25.1672 -6.74 21.1811
6 1 2 -24.1328 -7.07287 21.1537
9 1 2 -25.6816 -8.48425 23.0907
3 1 3 -25.5037 -7.66257 23.5458
2 1 1 -25.7263 -6.55306 22.6467
8 1 2 -25.2401 -5.68087 23.1406
5 1 2 -25.3365 -5.7428 20.6672
7 1 2 -26.7938 -6.33864 22.6058
ITEM: TIMESTEP
33600
ITEM: NUMBER OF ATOMS
38
ITEM: BOX BOUNDS pp pp pp
-2.6905500000000000e+01 2.6905500000000000e+01
-2.6905500000000000e+01 2.6905500000000000e+01
-2.6905500000000000e+01 2.6905500000000000e+01
ITEM: ATOMS id mol type x y z
27 3 2 -21.0508 -1.83592 -18.3871
21 3 3 -20.7414 -0.909594 -18.4309
26 3 2 -20.6036 -0.791939 -16.3524
20 3 1 -21.0727 -0.32317 -17.2334
25 3 2 -22.2485 -0.119209 -17.1264
19 3 1 -20.4299 1.06638 -17.3207
28 3 2 -21.9083 2.00881 -18.0028
22 3 3 -21.0286 1.81007 -18.3791
24 3 2 -19.3344 0.971512 -17.5153
23 3 2 -20.522 1.57405 -16.3481
12 2 3 -15.2236 5.16336 -13.684
18 2 2 -14.2492 4.88108 -13.885
37 4 2 1.79444 -13.1437 -9.17498
36 4 2 2.4672 -11.7357 -7.45763
31 4 3 2.27222 -12.298 -9.46475
30 4 1 2.05806 -11.3631 -8.46324
35 4 2 1.03499 -11.0748 -8.41744
33 4 2 2.3901 -9.38052 -7.94904
34 4 2 3.9888 -10.2767 -8.45876
29 4 1 2.85852 -10.0947 -8.68103
32 4 3 2.68771 -9.61234 -10.0117
38 4 2 1.90394 -9.08759 -10.05
17 2 2 -16.268 6.5413 -12.5022
11 2 1 -15.2154 6.07368 -12.5725
10 2 1 -14.8454 5.42257 -11.2558
15 2 2 -15.6512 4.62694 -11.0959
14 2 2 -14.8072 6.10865 -10.4329
13 2 2 -13.8426 4.91872 -11.3658
16 2 2 -14.5456 6.9032 -12.6952
4 1 2 -25.0822 -7.80229 20.801
1 1 1 -25.1474 -6.74133 20.9354
6 1 2 -24.0632 -6.37918 20.8689
9 1 2 -25.1067 -8.16212 23.2725
3 1 3 -24.9607 -7.1212 23.4029
2 1 1 -25.7207 -6.50639 22.3325
8 1 2 -25.6194 -5.39693 22.4754
5 1 2 -25.8494 -6.30461 20.1921
7 1 2 -26.73 -6.81058 22.3432
ITEM: TIMESTEP
33800
ITEM: NUMBER OF ATOMS
38
ITEM: BOX BOUNDS pp pp pp
-2.6905500000000000e+01 2.6905500000000000e+01
-2.6905500000000000e+01 2.6905500000000000e+01
-2.6905500000000000e+01 2.6905500000000000e+01
ITEM: ATOMS id mol type x y z
27 3 2 -20.9641 -2.14248 -17.825
21 3 3 -20.803 -1.16336 -18.1484
26 3 2 -20.0012 -0.795213 -16.2506
20 3 1 -20.7436 -0.391231 -16.9487
25 3 2 -21.6743 -0.378073 -16.4559
19 3 1 -20.3341 1.0695 -17.3129
28 3 2 -21.9525 1.76445 -18.088
22 3 3 -21.0659 1.69907 -18.3515
24 3 2 -19.2589 1.10703 -17.547
23 3 2 -20.4709 1.70396 -16.4005
12 2 3 -15.4792 4.84968 -13.5671
18 2 2 -14.6457 4.29439 -13.7844
37 4 2 1.66435 -13.2775 -8.97604
36 4 2 2.19886 -11.5096 -7.3788
31 4 3 2.17525 -12.433 -9.22407
30 4 1 1.97386 -11.3195 -8.40193
35 4 2 0.972419 -10.8978 -8.50811
33 4 2 2.76072 -9.28282 -8.02964
34 4 2 3.98474 -10.4578 -8.72509
29 4 1 2.89505 -10.158 -8.77779
32 4 3 2.72916 -9.67102 -10.1408
38 4 2 1.80317 -9.44495 -10.1606
17 2 2 -16.1657 6.51024 -12.3649
11 2 1 -15.2693 5.91256 -12.6466
10 2 1 -14.6431 5.45173 -11.3712
15 2 2 -15.2339 4.71889 -10.8844
14 2 2 -14.5702 6.3119 -10.7324
13 2 2 -13.6244 4.95486 -11.5392
16 2 2 -14.458 6.57105 -13.025
4 1 2 -25.5778 -7.3949 20.7487
1 1 1 -25.0679 -6.48406 21.1055
6 1 2 -24.025 -6.73326 21.2833
9 1 2 -26.0559 -7.79676 23.3802
3 1 3 -25.356 -7.04304 23.4841
2 1 1 -25.6011 -6.11888 22.487
8 1 2 -25.137 -5.15607 22.7427
5 1 2 -25.0809 -5.63713 20.3498
7 1 2 -26.6903 -5.92381 22.4626
ITEM: TIMESTEP
34000
ITEM: NUMBER OF ATOMS
38
ITEM: BOX BOUNDS pp pp pp
-2.6905500000000000e+01 2.6905500000000000e+01
-2.6905500000000000e+01 2.6905500000000000e+01
-2.6905500000000000e+01 2.6905500000000000e+01
ITEM: ATOMS id mol type x y z
27 3 2 -20.5989 -2.09034 -17.4258
21 3 3 -20.5577 -1.18064 -17.9004
26 3 2 -19.507 -0.581496 -16.3012
20 3 1 -20.3986 -0.226792 -16.8647
25 3 2 -21.2988 -0.200804 -16.2276
19 3 1 -20.222 1.07593 -17.4981
28 3 2 -22.1167 1.57014 -18.1186
22 3 3 -21.1746 1.49897 -18.5175
24 3 2 -19.2944 1.05258 -18.0686
23 3 2 -20.1157 1.86848 -16.7632
12 2 3 -15.7256 5.25029 -13.8903
18 2 2 -14.9019 5.20462 -14.4161
37 4 2 2.00216 -13.2239 -8.72868
36 4 2 2.87766 -11.5867 -7.51276
31 4 3 2.28971 -12.469 -9.31242
30 4 1 2.24591 -11.3198 -8.44869
35 4 2 1.1869 -11.157 -8.17972
33 4 2 2.65332 -9.17876 -8.33507
34 4 2 3.91499 -10.234 -9.10515
29 4 1 2.82302 -10.055 -9.00198
32 4 3 2.2802 -9.71146 -10.2004
38 4 2 1.29408 -9.6891 -10.1031
17 2 2 -16.5059 6.22737 -12.1882
11 2 1 -15.5156 6.1334 -12.7754
10 2 1 -14.6183 5.37913 -11.8191
15 2 2 -15.1176 4.39309 -11.5746
14 2 2 -14.5079 5.99612 -10.9364
13 2 2 -13.6093 5.15409 -12.2798
16 2 2 -15.1552 7.13927 -13.0424
4 1 2 -25.909 -7.63924 20.509
1 1 1 -25.4313 -6.68398 20.9056
6 1 2 -24.2722 -6.80117 20.9311
9 1 2 -26.2257 -7.77362 23.2233
3 1 3 -25.6188 -7.00112 23.3876
2 1 1 -25.8942 -6.11997 22.2417
8 1 2 -25.4163 -5.12178 22.3824
5 1 2 -25.7066 -5.89696 20.1809
7 1 2 26.8012 -5.8878 22.1994
ITEM: TIMESTEP
34200
ITEM: NUMBER OF ATOMS
38
ITEM: BOX BOUNDS pp pp pp
-2.6905500000000000e+01 2.6905500000000000e+01
-2.6905500000000000e+01 2.6905500000000000e+01
-2.6905500000000000e+01 2.6905500000000000e+01
ITEM: ATOMS id mol type x y z
21 3 3 -20.4854 -1.04681 -17.9113
25 3 2 -20.3146 -0.470612 -16.0019
27 3 2 -20.0916 -1.98283 -17.8063
26 3 2 -18.7951 -0.575689 -16.9127
20 3 1 -19.8582 -0.269792 -17.0167
28 3 2 -21.3841 1.92996 -16.6968
22 3 3 -21.0677 1.80405 -17.5989
19 3 1 -19.8291 1.23286 -17.4486
24 3 2 -19.195 1.33277 -18.4231
23 3 2 -19.2713 1.78608 -16.6573
12 2 3 -15.4317 5.48802 -14.0983
18 2 2 -14.4882 5.15325 -14.2615
37 4 2 1.76829 -13.0161 -8.64147
36 4 2 3.01009 -11.4207 -7.37272
31 4 3 2.24796 -12.3187 -9.11285
30 4 1 2.32637 -11.1824 -8.28808
35 4 2 1.36098 -10.8814 -7.85213
33 4 2 3.15239 -9.20099 -8.28347
34 4 2 3.76055 -10.2121 -9.61707
29 4 1 2.81545 -9.98757 -9.0559
32 4 3 1.82902 -9.41097 -9.93662
38 4 2 0.951534 -9.23534 -9.36942
17 2 2 -16.4505 6.67671 -12.8672
11 2 1 -15.3488 6.32898 -12.9605
10 2 1 -14.8591 5.75872 -11.6249
15 2 2 -15.3505 4.8188 -11.3607
14 2 2 -14.9091 6.47833 -10.793
13 2 2 -13.8347 5.47294 -11.6866
16 2 2 -14.7107 7.24288 -13.2515
5 1 2 -25.9371 -5.93991 20.2787
4 1 2 -26.307 -7.51799 20.7366
6 1 2 -24.6119 -7.04 20.7961
9 1 2 -26.0251 -7.86456 23.0468
3 1 3 -25.5389 -7.04549 23.285
1 1 1 -25.6366 -6.68544 20.91
2 1 1 -25.7856 -6.06994 22.3144
8 1 2 -24.9751 -5.26498 22.481
7 1 2 -26.746 -5.60141 22.4039
ITEM: TIMESTEP
34400
ITEM: NUMBER OF ATOMS
38
ITEM: BOX BOUNDS pp pp pp
-2.6905500000000000e+01 2.6905500000000000e+01
-2.6905500000000000e+01 2.6905500000000000e+01
-2.6905500000000000e+01 2.6905500000000000e+01
ITEM: ATOMS id mol type x y z
21 3 3 -20.5775 -1.15841 -17.4532
25 3 2 -19.5538 -0.229068 -15.9717
27 3 2 -20.2158 -2.09057 -17.2964
26 3 2 -18.5117 -0.724383 -17.3273
20 3 1 -19.5334 -0.284153 -17.0445
28 3 2 -20.8745 1.63434 -16.0648
22 3 3 -20.9455 1.65629 -17.0386
19 3 1 -19.7806 1.11561 -17.5872
24 3 2 -19.7671 1.25802 -18.6519
23 3 2 -18.9349 1.72426 -17.1498
12 2 3 -15.5491 5.76634 -14.0005
18 2 2 -14.6049 5.67124 -14.2226
37 4 2 2.04544 -13.0374 -9.06787
36 4 2 3.34779 -11.8856 -7.90503
31 4 3 2.13271 -12.1468 -9.4557
30 4 1 2.54549 -11.346 -8.36974
35 4 2 1.7404 -11.3171 -7.62332
33 4 2 3.37717 -9.36993 -7.91398
34 4 2 3.74765 -10.1884 -9.5664
29 4 1 2.9713 -9.97704 -8.78786
32 4 3 1.85717 -9.33158 -9.30403
38 4 2 1.22906 -9.20391 -8.52601
17 2 2 -16.5425 6.86895 -12.548
11 2 1 -15.541 6.685 -12.9085
10 2 1 -14.7946 5.98621 -11.7873
15 2 2 -15.343 5.06813 -11.3311
14 2 2 -14.5965 6.76087 -11.0271
13 2 2 -13.7888 5.65204 -12.0438
16 2 2 -15.0731 7.61484 -13.235
5 1 2 -26.1185 -5.63177 20.2177
4 1 2 27.0884 -7.01717 21.0544
6 1 2 -25.0255 -6.95811 20.7286
9 1 2 -25.941 -7.45394 23.2578
3 1 3 -25.2539 -6.8031 23.2938
1 1 1 -25.8975 -6.36869 21.0095
2 1 1 -25.6084 -5.76237 22.3613
8 1 2 -24.7877 -4.98275 22.217
7 1 2 -26.4921 -5.23222 22.731
ITEM: TIMESTEP
34600
ITEM: NUMBER OF ATOMS
38
ITEM: BOX BOUNDS pp pp pp
-2.6905500000000000e+01 2.6905500000000000e+01
-2.6905500000000000e+01 2.6905500000000000e+01
-2.6905500000000000e+01 2.6905500000000000e+01
ITEM: ATOMS id mol type x y z
21 3 3 -20.5537 -1.36547 -17.3302
25 3 2 -19.1514 -0.197677 -16.1672
27 3 2 -20.2171 -2.28977 -17.2472
26 3 2 -18.7654 -0.825338 -17.8872
20 3 1 -19.5629 -0.459918 -17.2214
28 3 2 -20.629 1.52436 -15.9911
22 3 3 -21.0164 1.53275 -16.9274
19 3 1 -20.0352 0.945231 -17.7604
24 3 2 -20.3394 0.84216 -18.776
23 3 2 -19.0977 1.66422 -17.7806
12 2 3 -15.3137 5.86586 -13.9468
18 2 2 -14.3801 5.57243 -14.1357
37 4 2 1.46456 -12.9205 -9.46443
36 4 2 3.23499 -12.2309 -8.21316
31 4 3 1.8477 -12.0381 -9.72145
30 4 1 2.40113 -11.5265 -8.55145
35 4 2 1.64086 -11.5394 -7.73512
33 4 2 3.48196 -9.65762 -7.90294
34 4 2 3.67769 -10.2575 -9.56273
29 4 1 2.99866 -10.0438 -8.82503
32 4 3 2.01319 -9.13561 -9.28211
38 4 2 1.22874 -9.01533 -8.6502
17 2 2 -16.2196 7.21589 -12.6638
11 2 1 -15.243 6.81096 -12.9021
10 2 1 -14.6991 6.03978 -11.7436
15 2 2 -15.4112 5.34495 -11.4196
14 2 2 -14.426 6.73589 -10.8821
13 2 2 -13.7858 5.53555 -12.0675
16 2 2 -14.5657 7.63875 -13.172
5 1 2 -26.034 -5.20195 20.5888
4 1 2 -26.9637 -6.53397 21.5296
6 1 2 -25.3778 -6.90663 20.6193
9 1 2 -25.5883 -7.04494 23.874
3 1 3 -24.7642 -6.66989 23.4715
1 1 1 -25.9278 -6.12224 21.2526
2 1 1 -25.1841 -5.76355 22.5178
8 1 2 -24.2141 -5.37346 22.2458
7 1 2 -25.7785 -5.00538 23.0341
ITEM: TIMESTEP
34800
ITEM: NUMBER OF ATOMS
38
ITEM: BOX BOUNDS pp pp pp
-2.6905500000000000e+01 2.6905500000000000e+01
-2.6905500000000000e+01 2.6905500000000000e+01
-2.6905500000000000e+01 2.6905500000000000e+01
ITEM: ATOMS id mol type x y z
21 3 3 -20.4945 -1.56558 -17.2106
25 3 2 -19.1057 -0.596472 -15.9834
27 3 2 -20.2758 -2.39937 -16.7467
26 3 2 -18.6417 -0.834043 -17.7077
20 3 1 -19.4633 -0.611497 -17.0541
28 3 2 -20.8506 1.25169 -15.6637
22 3 3 -21.0685 1.28069 -16.7141
19 3 1 -19.8904 0.864421 -17.3846
24 3 2 -20.0978 0.952599 -18.4836
23 3 2 -19.0408 1.50438 -17.1664
12 2 3 -15.4055 5.88826 -13.7505
18 2 2 -14.5243 6.10002 -14.2187
37 4 2 1.23592 -12.8983 -9.18713
36 4 2 2.80103 -12.5411 -7.82019
31 4 3 1.77881 -12.0708 -9.4952
30 4 1 2.32595 -11.6589 -8.28984
35 4 2 1.55816 -11.1975 -7.66561
33 4 2 3.90156 -10.2163 -7.71139
34 4 2 4.03315 -10.8368 -9.34838
29 4 1 3.27237 -10.5253 -8.53416
32 4 3 2.63725 -9.36014 -8.95155
38 4 2 2.06556 -9.11285 -8.16478
17 2 2 -16.2484 7.02322 -12.1749
11 2 1 -15.2775 6.7381 -12.5812
10 2 1 -14.3983 6.14198 -11.4911
15 2 2 -14.8448 5.20317 -11.0441
14 2 2 -14.2741 6.88941 -10.6329
13 2 2 -13.3653 5.8396 -11.7627
16 2 2 -14.8129 7.68982 -12.9017
5 1 2 -25.9787 -5.42843 20.4119
4 1 2 -27.1039 -6.41826 21.4961
6 1 2 -25.716 -7.05739 20.7609
9 1 2 -26.0479 -6.80489 23.7989
3 1 3 -25.1743 -6.74112 23.3627
1 1 1 -26.0835 -6.15677 21.2085
2 1 1 -25.2301 -5.70222 22.426
8 1 2 -24.2045 -5.43805 22.0771
7 1 2 -25.7734 -4.74734 22.7456
ITEM: TIMESTEP
35000
ITEM: NUMBER OF ATOMS
38
ITEM: BOX BOUNDS pp pp pp
-2.6905500000000000e+01 2.6905500000000000e+01
-2.6905500000000000e+01 2.6905500000000000e+01
-2.6905500000000000e+01 2.6905500000000000e+01
ITEM: ATOMS id mol type x y z
21 3 3 -20.2204 -1.44096 -16.9441
27 3 2 -19.5578 -2.17146 -16.8686
26 3 2 -19.1051 -0.583823 -18.6426
20 3 1 -19.5252 -0.362768 -17.5572
28 3 2 -20.5761 1.48457 -15.9328
22 3 3 -21.1594 1.18446 -16.5821
19 3 1 -20.4574 0.853854 -17.7094
24 3 2 -21.2524 0.497823 -18.3809
25 3 2 -18.6769 0.0418731 -16.9895
23 3 2 -19.9514 1.79636 -18.0086
12 2 3 -15.226 6.12196 -14.3325
18 2 2 -14.3454 5.80946 -14.6565
37 4 2 0.842879 -12.6466 -9.5076
36 4 2 2.72332 -12.5977 -8.3056
31 4 3 1.39526 -11.8927 -9.6543
30 4 1 2.13275 -11.6417 -8.53799
35 4 2 1.48326 -11.4227 -7.69816
33 4 2 3.69453 -10.3462 -8.01941
34 4 2 3.68269 -10.6458 -9.76061
29 4 1 3.03609 -10.4574 -8.86225
32 4 3 2.35842 -9.27626 -9.1143
38 4 2 2.0202 -8.9053 -8.24064
10 2 1 -14.5492 6.05786 -12.0508
15 2 2 -15.2122 5.17085 -11.9453
14 2 2 -14.6212 6.62144 -11.107
13 2 2 -13.4894 5.69967 -12.1836
17 2 2 -16.0671 7.21792 -12.7507
11 2 1 -15.1082 6.88903 -13.1698
16 2 2 -14.4402 7.81385 -13.3188
6 1 2 -25.9504 -7.40069 21.0306
9 1 2 -25.5755 -7.163 23.9354
3 1 3 -24.7904 -6.96277 23.4099
5 1 2 -26.4624 -5.63122 20.8168
1 1 1 -26.2545 -6.43504 21.582
2 1 1 -25.072 -6.00257 22.3991
8 1 2 -24.211 -5.93151 21.6931
7 1 2 -25.2539 -4.99354 22.7622
4 1 2 26.684 -6.69201 22.2251
ITEM: TIMESTEP
35200
ITEM: NUMBER OF ATOMS
38
ITEM: BOX BOUNDS pp pp pp
-2.6905500000000000e+01 2.6905500000000000e+01
-2.6905500000000000e+01 2.6905500000000000e+01
-2.6905500000000000e+01 2.6905500000000000e+01
ITEM: ATOMS id mol type x y z
21 3 3 -19.8468 -1.31671 -17.051
27 3 2 -18.9733 -1.78015 -16.9611
26 3 2 -19.0338 0.075752 -18.2603
20 3 1 -19.5169 0.0249359 -17.2659
28 3 2 -20.6693 1.65776 -15.5622
22 3 3 -21.3664 1.22798 -16.1421
19 3 1 -20.7745 0.879332 -17.3687
24 3 2 -21.521 0.397772 -18.0915
25 3 2 -18.8062 0.520896 -16.5625
23 3 2 -20.4109 1.78713 -17.8036
12 2 3 -15.9631 6.78174 -14.2489
18 2 2 -15.3293 6.22644 -14.8504
37 4 2 0.563361 -12.386 -9.41851
36 4 2 2.80584 -12.5092 -8.35674
31 4 3 1.28274 -11.7696 -9.69303
30 4 1 2.18245 -11.6164 -8.58162
35 4 2 1.67145 -11.3556 -7.57812
33 4 2 3.70342 -10.1219 -7.88753
34 4 2 3.80809 -10.5782 -9.57951
29 4 1 3.14527 -10.3764 -8.77335
32 4 3 2.42891 -9.24398 -9.16604
38 4 2 1.79411 -8.99908 -8.43135
10 2 1 -14.5885 6.03947 -12.3699
15 2 2 -15.3204 5.29126 -11.9676
14 2 2 -14.1497 6.4671 -11.5028
13 2 2 -13.8501 5.4828 -12.9983
17 2 2 -15.8006 7.77444 -12.4601
11 2 1 -15.1742 7.18405 -13.1539
16 2 2 -14.3629 7.90163 -13.3777
6 1 2 -26.2092 -7.34016 21.211
9 1 2 -25.0537 -6.75529 24.0639
3 1 3 -24.5153 -7.09032 23.3235
5 1 2 -26.4309 -5.51653 20.9902
1 1 1 -26.1451 -6.34599 21.7414
2 1 1 -24.7469 -6.13633 22.3455
8 1 2 -24.0659 -6.2109 21.4455
7 1 2 -24.7289 -5.11244 22.776
4 1 2 26.97 -6.32596 22.5521
ITEM: TIMESTEP
35400
ITEM: NUMBER OF ATOMS
38
ITEM: BOX BOUNDS pp pp pp
-2.6905500000000000e+01 2.6905500000000000e+01
-2.6905500000000000e+01 2.6905500000000000e+01
-2.6905500000000000e+01 2.6905500000000000e+01
ITEM: ATOMS id mol type x y z
21 3 3 -19.8994 -1.35617 -17.0722
27 3 2 -19.1992 -1.90455 -17.4868
26 3 2 -19.3639 -0.14939 -18.7134
20 3 1 -19.468 -0.134043 -17.569
28 3 2 -20.2467 1.30755 -15.529
22 3 3 -20.9628 0.859632 -16.0081
19 3 1 -20.551 0.902091 -17.3299
24 3 2 -21.4092 0.754198 -18.0023
25 3 2 -18.5625 0.281713 -17.0746
23 3 2 -20.0873 1.82875 -17.5822
12 2 3 -16.2058 6.48269 -14.3365
18 2 2 -15.6264 6.08381 -14.9934
37 4 2 0.918531 -13.0088 -9.33058
36 4 2 3.00614 -12.5319 -8.5088
31 4 3 1.28638 -12.1159 -9.56826
30 4 1 2.25223 -11.7347 -8.62435
35 4 2 1.62565 -11.5622 -7.75852
33 4 2 3.48828 -10.1026 -8.26965
34 4 2 3.48721 -10.503 -10.0449
29 4 1 2.87008 -10.3849 -9.0489
32 4 3 1.89418 -9.38895 -9.25063
38 4 2 1.51876 -9.15525 -8.38477
10 2 1 -14.7384 6.10582 -12.253
15 2 2 -15.5103 5.2563 -11.9636
14 2 2 -14.3348 6.67676 -11.4257
13 2 2 -13.8762 5.66427 -12.7943
17 2 2 -16.2965 7.62598 -12.6179
11 2 1 -15.4827 7.08053 -13.1957
16 2 2 -14.7932 7.82137 -13.6126
6 1 2 -25.9965 -7.99692 21.8398
9 1 2 -24.9853 -6.18902 24.1055
3 1 3 -24.4547 -6.8758 23.684
5 1 2 -25.8278 -6.66046 20.6137
1 1 1 -25.8134 -6.83721 21.7042
2 1 1 -24.4768 -6.58395 22.294
8 1 2 -23.7108 -7.19742 21.7704
7 1 2 -24.2344 -5.57866 22.1514
4 1 2 -26.4868 -6.25121 22.3106
ITEM: TIMESTEP
35600
ITEM: NUMBER OF ATOMS
38
ITEM: BOX BOUNDS pp pp pp
-2.6905500000000000e+01 2.6905500000000000e+01
-2.6905500000000000e+01 2.6905500000000000e+01
-2.6905500000000000e+01 2.6905500000000000e+01
ITEM: ATOMS id mol type x y z
21 3 3 -20.0564 -1.52303 -17.6068
27 3 2 -19.5336 -2.39492 -17.5641
26 3 2 -18.7748 -0.337445 -18.7063
20 3 1 -19.1931 -0.447774 -17.6993
28 3 2 -19.8458 1.16705 -15.3293
22 3 3 -20.5509 0.895823 -15.9941
19 3 1 -20.0759 0.833612 -17.3536
24 3 2 -21.0187 0.921868 -17.9679
25 3 2 -18.3292 -0.509999 -17.0122
23 3 2 -19.4972 1.7151 -17.5456
12 2 3 -16.0767 6.78398 -14.0226
18 2 2 -15.4958 6.22481 -14.5246
37 4 2 0.936506 -12.943 -8.77236
36 4 2 3.23942 -12.3708 -8.79228
31 4 3 1.15483 -12.1537 -9.24555
30 4 1 2.3953 -11.6703 -8.73672
35 4 2 2.09387 -11.4849 -7.63272
33 4 2 3.80729 -10.0262 -8.96481
34 4 2 2.89655 -10.3813 -10.421
29 4 1 2.80024 -10.3317 -9.3356
32 4 3 1.88546 -9.23663 -9.09019
38 4 2 2.01682 -8.97683 -8.16628
10 2 1 -14.5248 6.46861 -12.2359
15 2 2 -15.0371 5.67872 -11.7453
14 2 2 -13.8807 6.99746 -11.5343
13 2 2 -13.8611 5.92491 -12.9879
17 2 2 -16.0639 7.98505 -12.4056
11 2 1 -15.3579 7.43521 -13.0097
16 2 2 -14.6937 8.23476 -13.5009
6 1 2 -26.6063 -8.62715 22.198
9 1 2 -25.8174 -6.64014 23.9415
3 1 3 -24.9254 -7.00174 23.6449
5 1 2 -26.2028 -7.62034 20.6967
1 1 1 -26.3192 -7.57411 21.8087
2 1 1 -24.9779 -7.03685 22.3129
8 1 2 -24.1214 -7.68166 21.9085
7 1 2 -24.8423 -5.93986 21.997
4 1 2 -27.1874 -6.899 22.1088
ITEM: TIMESTEP
35800
ITEM: NUMBER OF ATOMS
38
ITEM: BOX BOUNDS pp pp pp
-2.6905500000000000e+01 2.6905500000000000e+01
-2.6905500000000000e+01 2.6905500000000000e+01
-2.6905500000000000e+01 2.6905500000000000e+01
ITEM: ATOMS id mol type x y z
21 3 3 -19.842 -1.49035 -17.3224
27 3 2 -19.349 -2.13464 -17.7175
26 3 2 -19.4143 -0.233484 -18.9849
20 3 1 -19.3026 -0.277254 -17.8624
28 3 2 -18.9792 1.21373 -15.7275
22 3 3 -19.9198 1.22104 -16.0218
19 3 1 -19.9379 1.00632 -17.4373
24 3 2 -20.9875 0.944631 -17.8002
25 3 2 -18.2499 -0.199975 -17.4639
23 3 2 -19.5411 1.87997 -17.9343
12 2 3 -15.9469 6.79089 -13.8978
18 2 2 -15.229 6.33059 -14.3256
37 4 2 1.25862 -13.1205 -8.72917
36 4 2 3.4887 -12.5075 -8.6934
31 4 3 1.44066 -12.28 -9.20062
30 4 1 2.65108 -11.7431 -8.70284
35 4 2 2.43238 -11.3974 -7.59952
33 4 2 3.96802 -10.0735 -8.96432
34 4 2 3.33356 -10.7906 -10.5668
29 4 1 3.10853 -10.4692 -9.4498
32 4 3 2.07281 -9.57178 -9.41382
38 4 2 2.04071 -9.28916 -8.48477
10 2 1 -14.8651 6.18976 -11.8668
15 2 2 -15.7791 5.51176 -11.6296
14 2 2 -14.4658 6.50682 -10.9182
13 2 2 -14.125 5.52321 -12.3706
17 2 2 -16.2954 7.77361 -12.1501
11 2 1 -15.4255 7.31119 -12.6712
16 2 2 -14.5793 8.08309 -12.7844
6 1 2 -26.0065 -8.93148 22.0839
9 1 2 -25.8869 -6.79002 23.9051
3 1 3 -24.9732 -6.94553 23.5414
5 1 2 -26.2182 -7.88946 20.5688
1 1 1 -26.1579 -7.9261 21.6656
2 1 1 -25.1169 -6.92226 22.1267
8 1 2 -24.0713 -7.14961 21.7092
7 1 2 -25.3192 -5.8767 21.7593
4 1 2 26.6428 -7.62085 22.1075
ITEM: TIMESTEP
36000
ITEM: NUMBER OF ATOMS
38
ITEM: BOX BOUNDS pp pp pp
-2.6905500000000000e+01 2.6905500000000000e+01
-2.6905500000000000e+01 2.6905500000000000e+01
-2.6905500000000000e+01 2.6905500000000000e+01
ITEM: ATOMS id mol type x y z
21 3 3 -19.9379 -1.33157 -17.4299
27 3 2 -19.5209 -2.21912 -17.6467
26 3 2 -18.5992 -0.317395 -18.6678
20 3 1 -18.9607 -0.380577 -17.6112
28 3 2 -19.2084 0.755798 -15.3317
22 3 3 -19.9815 0.986238 -15.8733
19 3 1 -19.617 0.935388 -17.1882
24 3 2 -20.4849 1.19487 -17.7881
25 3 2 -18.0923 -0.529578 -16.9544
23 3 2 -18.9094 1.75612 -17.3754
12 2 3 -15.7969 6.79205 -14.1959
18 2 2 -15.079 6.70757 -14.851
37 4 2 2.10204 -13.4071 -8.98187
36 4 2 4.00989 -12.5244 -9.88924
31 4 3 1.97001 -12.5115 -9.36566
30 4 1 3.19817 -11.9056 -9.29
35 4 2 3.30455 -11.8274 -8.2393
33 4 2 4.04446 -9.93085 -9.71396
34 4 2 2.85193 -10.5568 -10.974
29 4 1 3.04905 -10.4951 -9.84894
32 4 3 1.91321 -9.85436 -9.3278
38 4 2 2.09918 -9.64149 -8.36499
10 2 1 -14.749 5.99567 -12.313
15 2 2 -15.5912 5.31328 -12.1295
14 2 2 -14.2903 6.35138 -11.38
13 2 2 -14.0493 5.52932 -12.9925
17 2 2 -16.1729 7.53663 -12.3941
11 2 1 -15.2785 7.15242 -13.0113
16 2 2 -14.5781 7.96712 -13.0898
6 1 2 -26.3448 -9.08631 21.8298
9 1 2 -26.3744 -6.90394 23.7027
3 1 3 -25.4602 -7.17943 23.5307
5 1 2 -25.9955 -7.91497 20.3571
1 1 1 -26.3455 -7.99582 21.432
2 1 1 -25.3059 -7.14859 22.163
8 1 2 -24.3143 -7.51575 21.9038
7 1 2 -25.3745 -6.07049 21.7946
4 1 2 26.5052 -7.42724 21.5696
ITEM: TIMESTEP
36200
ITEM: NUMBER OF ATOMS
38
ITEM: BOX BOUNDS pp pp pp
-2.6905500000000000e+01 2.6905500000000000e+01
-2.6905500000000000e+01 2.6905500000000000e+01
-2.6905500000000000e+01 2.6905500000000000e+01
ITEM: ATOMS id mol type x y z
21 3 3 -20.2107 -1.53936 -17.3597
27 3 2 -19.8628 -2.5331 -17.3822
26 3 2 -18.4717 -0.992172 -18.2879
20 3 1 -19.0404 -0.74349 -17.3266
25 3 2 -18.4708 -0.92979 -16.406
28 3 2 -19.3541 1.06234 -15.2916
22 3 3 -19.9074 1.20966 -16.0982
19 3 1 -19.2654 0.793335 -17.299
24 3 2 -19.9481 1.00613 -18.1967
23 3 2 -18.2462 1.21326 -17.3293
12 2 3 -15.6971 6.63031 -14.2944
18 2 2 -14.8249 6.58104 -14.8678
37 4 2 1.5989 -13.1509 -8.97892
36 4 2 3.86293 -12.6512 -9.79044
31 4 3 1.75655 -12.3222 -9.38545
30 4 1 3.14245 -11.9399 -9.21128
35 4 2 3.45191 -11.9681 -8.17758
33 4 2 4.38902 -10.1438 -9.56918
34 4 2 3.00118 -10.3323 -10.7401
29 4 1 3.2941 -10.4859 -9.67188
32 4 3 2.44563 -9.73271 -8.83999
38 4 2 2.94418 -9.73381 -7.97876
10 2 1 -14.5397 5.74594 -12.4707
15 2 2 -14.8982 4.72801 -12.7496
14 2 2 -14.5178 5.90836 -11.392
13 2 2 -13.4607 5.65651 -12.7857
17 2 2 -16.4141 6.73558 -12.4095
11 2 1 -15.4702 6.79639 -12.9095
16 2 2 -15.0307 7.73467 -12.7041
6 1 2 -26.6048 -8.70471 21.379
9 1 2 -26.2651 -6.82888 23.8466
3 1 3 -25.7063 -7.64675 23.7472
5 1 2 -25.8429 -7.41825 20.3474
1 1 1 -26.2106 -7.64492 21.3865
2 1 1 -25.1217 -7.44046 22.4761
8 1 2 -24.3173 -8.20075 22.3325
4 1 2 26.7187 -7.03096 21.5986
7 1 2 -24.5497 -6.50244 22.4262
ITEM: TIMESTEP
36400
ITEM: NUMBER OF ATOMS
38
ITEM: BOX BOUNDS pp pp pp
-2.6905500000000000e+01 2.6905500000000000e+01
-2.6905500000000000e+01 2.6905500000000000e+01
-2.6905500000000000e+01 2.6905500000000000e+01
ITEM: ATOMS id mol type x y z
21 3 3 -20.2736 -1.62984 -17.2391
27 3 2 -20.1519 -2.58002 -17.0385
26 3 2 -18.3577 -1.43289 -17.8383
20 3 1 -19.0671 -0.97145 -17.132
25 3 2 -18.6826 -1.22923 -16.0537
28 3 2 -19.6944 1.00866 -15.4402
22 3 3 -19.9695 1.2042 -16.3549
19 3 1 -19.0345 0.496094 -17.2337
24 3 2 -19.3924 0.772241 -18.2521
23 3 2 -17.9933 0.879682 -17.0981
12 2 3 -15.4442 6.72798 -14.4184
18 2 2 -14.5761 6.50764 -14.908
37 4 2 1.64538 -13.1716 -9.022
36 4 2 3.44803 -12.2726 -10.0395
31 4 3 1.58776 -12.2603 -9.47895
30 4 1 2.80428 -11.6986 -9.28379
35 4 2 3.24009 -11.7829 -8.25879
33 4 2 4.00328 -10.0973 -9.64421
34 4 2 2.56049 -10.0144 -10.7325
29 4 1 2.91089 -10.2605 -9.71488
32 4 3 2.21165 -9.39011 -8.80321
38 4 2 2.68139 -9.40121 -7.87211
10 2 1 -14.5588 5.63799 -12.3442
15 2 2 -15.2393 4.70358 -12.413
14 2 2 -14.285 5.76397 -11.3166
13 2 2 -13.654 5.5306 -12.9112
17 2 2 -16.1611 7.07435 -12.6553
11 2 1 -15.2147 6.86891 -13.0712
16 2 2 -14.6162 7.81682 -12.8747
6 1 2 -26.1422 -8.83189 21.4128
9 1 2 -26.1675 -6.71442 23.6155
3 1 3 -25.3726 -7.16107 23.5932
5 1 2 -25.6943 -7.57288 20.2376
1 1 1 -26.0728 -7.73192 21.2382
2 1 1 -25.0338 -7.07617 22.2055
8 1 2 -24.1243 -7.69676 22.0751
4 1 2 26.8039 -7.19017 21.3273
7 1 2 -24.8186 -6.07129 21.8011
ITEM: TIMESTEP
36600
ITEM: NUMBER OF ATOMS
38
ITEM: BOX BOUNDS pp pp pp
-2.6905500000000000e+01 2.6905500000000000e+01
-2.6905500000000000e+01 2.6905500000000000e+01
-2.6905500000000000e+01 2.6905500000000000e+01
ITEM: ATOMS id mol type x y z
21 3 3 -20.4081 -1.70093 -17.5907
27 3 2 -20.4241 -2.58628 -17.0424
26 3 2 -18.2968 -1.64914 -17.8224
20 3 1 -19.1328 -1.2302 -17.2045
25 3 2 -19.0194 -1.41635 -16.101
28 3 2 -19.9738 0.581025 -15.7435
22 3 3 -19.9522 0.942464 -16.5879
19 3 1 -18.9807 0.304709 -17.321
24 3 2 -19.1153 0.626852 -18.4193
23 3 2 -18.0341 0.661226 -16.9956
12 2 3 -15.3571 7.09357 -14.0158
18 2 2 -14.399 7.25973 -14.3242
37 4 2 1.59811 -13.2969 -8.78401
36 4 2 2.88589 -12.1668 -10.6213
31 4 3 1.59055 -12.2647 -8.92687
30 4 1 2.74482 -11.7588 -9.56773
35 4 2 3.64389 -12.1172 -8.99072
33 4 2 3.93482 -9.98526 -10.0788
34 4 2 2.11054 -10.0388 -10.542
29 4 1 2.86366 -10.2328 -9.72366
32 4 3 2.60147 -9.46042 -8.61019
38 4 2 3.34784 -9.78318 -7.98797
10 2 1 -14.5206 5.46168 -12.341
15 2 2 -15.1336 4.57552 -12.7025
14 2 2 -14.3929 5.40606 -11.3059
13 2 2 -13.4176 5.47109 -12.7657
17 2 2 -16.3173 6.7919 -12.3361
11 2 1 -15.212 6.79935 -12.636
16 2 2 -14.6466 7.62088 -12.085
6 1 2 -27.1951 -8.81251 21.9242
9 1 2 -26.6168 -7.04849 24.3991
3 1 3 -25.8188 -7.55294 23.991
5 1 2 -26.7218 -7.70496 20.6867
1 1 1 -26.9527 -7.76169 21.7476
2 1 1 -25.6781 -7.36773 22.5626
8 1 2 -24.8417 -8.03053 22.179
4 1 2 25.8843 -7.15817 21.8769
7 1 2 -25.3865 -6.29503 22.3531
ITEM: TIMESTEP
36800
ITEM: NUMBER OF ATOMS
38
ITEM: BOX BOUNDS pp pp pp
-2.6905500000000000e+01 2.6905500000000000e+01
-2.6905500000000000e+01 2.6905500000000000e+01
-2.6905500000000000e+01 2.6905500000000000e+01
ITEM: ATOMS id mol type x y z
21 3 3 -20.451 -1.73594 -17.4297
27 3 2 -20.4444 -2.72897 -17.4667
26 3 2 -18.4654 -1.64936 -18.0089
20 3 1 -19.1375 -1.26342 -17.1665
25 3 2 -18.7924 -1.6766 -16.1856
28 3 2 -19.4219 0.805143 -15.292
22 3 3 -19.863 0.85677 -16.1844
19 3 1 -19.1175 0.287984 -17.1915
24 3 2 -19.5127 0.557828 -18.1691
23 3 2 -18.059 0.663366 -17.1932
12 2 3 -15.122 6.8862 -14.443
18 2 2 -14.2419 6.97704 -14.7751
37 4 2 1.47117 -13.3001 -8.78625
36 4 2 2.49925 -12.5395 -10.6655
31 4 3 1.41692 -12.3751 -8.99795
30 4 1 2.59382 -12.0525 -9.6603
35 4 2 3.50881 -12.4122 -9.09791
33 4 2 3.68467 -10.3578 -10.3897
34 4 2 1.95631 -10.1009 -10.5506
29 4 1 2.76623 -10.5553 -9.84714
32 4 3 2.80066 -9.83448 -8.60787
38 4 2 3.7213 -9.88804 -8.3136
10 2 1 -14.626 5.34956 -12.6443
15 2 2 -15.3834 4.5129 -12.9087
14 2 2 -14.4131 5.38038 -11.5557
13 2 2 -13.6659 5.02019 -13.2016
17 2 2 -16.0251 6.79142 -12.5721
11 2 1 -15.0951 6.73796 -13.0752
16 2 2 -14.3251 7.36812 -12.6218
6 1 2 26.4136 -9.11287 22.1664
9 1 2 -26.2702 -7.03494 24.3928
3 1 3 -25.6424 -7.62166 23.9604
5 1 2 26.619 -7.80504 20.9817
1 1 1 26.6403 -7.95013 22.0425
2 1 1 -25.8384 -7.48446 22.5604
8 1 2 -25.1245 -8.02889 22.0525
4 1 2 25.8007 -7.30056 22.4378
7 1 2 -25.7198 -6.42804 22.2593
ITEM: TIMESTEP
37000
ITEM: NUMBER OF ATOMS
38
ITEM: BOX BOUNDS pp pp pp
-2.6905500000000000e+01 2.6905500000000000e+01
-2.6905500000000000e+01 2.6905500000000000e+01
-2.6905500000000000e+01 2.6905500000000000e+01
ITEM: ATOMS id mol type x y z
21 3 3 -20.6568 -1.47824 -17.3868
27 3 2 -20.6721 -2.44498 -17.4323
26 3 2 -18.7438 -1.34207 -18.0813
20 3 1 -19.3341 -0.952319 -17.231
25 3 2 -18.8764 -1.34885 -16.2607
28 3 2 -19.4865 0.552418 -15.1444
22 3 3 -19.9972 0.915193 -15.9218
19 3 1 -19.2756 0.558941 -17.0677
24 3 2 -19.6671 1.07053 -17.9879
23 3 2 -18.2641 0.852528 -16.9495
12 2 3 -15.269 6.25767 -14.7527
18 2 2 -14.3798 6.33282 -15.1074
37 4 2 1.52732 -13.3073 -8.38478
36 4 2 3.09681 -12.7755 -10.1791
31 4 3 1.6874 -12.3534 -8.69916
30 4 1 3.0003 -12.1397 -9.31289
35 4 2 3.76146 -12.3091 -8.50009
33 4 2 4.03766 -10.4363 -10.401
34 4 2 2.27407 -10.5238 -10.6601
29 4 1 3.06199 -10.6635 -9.88185
32 4 3 2.78554 -9.78258 -8.85353
38 4 2 3.44162 -9.98516 -8.1643
10 2 1 -14.3572 5.42291 -12.6905
15 2 2 -14.8072 4.35318 -12.8243
14 2 2 -14.3332 5.62064 -11.595
13 2 2 -13.3651 5.38922 -13.0752
17 2 2 -16.2124 6.42584 -12.9308
11 2 1 -15.2003 6.51869 -13.3673
16 2 2 -14.7023 7.49449 -13.2669
6 1 2 26.9052 -8.82163 21.8709
9 1 2 -26.1687 -6.95807 24.1032
3 1 3 -25.369 -7.39247 23.7272
5 1 2 26.9502 -7.57843 20.5965
1 1 1 26.9949 -7.77726 21.7325
2 1 1 -25.5331 -7.24781 22.3684
8 1 2 -24.6105 -7.68661 21.9387
4 1 2 26.1969 -7.15023 22.2843
7 1 2 -25.435 -6.14815 22.2306
ITEM: TIMESTEP
37200
ITEM: NUMBER OF ATOMS
38
ITEM: BOX BOUNDS pp pp pp
-2.6905500000000000e+01 2.6905500000000000e+01
-2.6905500000000000e+01 2.6905500000000000e+01
-2.6905500000000000e+01 2.6905500000000000e+01
ITEM: ATOMS id mol type x y z
21 3 3 -20.9574 -1.23245 -17.926
27 3 2 -21.1095 -2.21428 -17.9899
26 3 2 -18.8346 -1.63851 -18.0311
20 3 1 -19.6042 -1.19267 -17.3356
25 3 2 -19.6375 -1.7669 -16.3784
28 3 2 -19.9018 0.364736 -15.2566
22 3 3 -20.0179 0.863366 -16.1127
19 3 1 -19.2322 0.230925 -17.0668
24 3 2 -19.2601 0.738383 -18.1019
23 3 2 -18.1882 0.308807 -16.6927
12 2 3 -15.3488 6.80913 -14.4534
18 2 2 -14.4135 6.81002 -14.7646
37 4 2 2.31496 -13.1736 -7.74296
36 4 2 3.46861 -12.7526 -9.7478
31 4 3 2.2147 -12.3322 -8.25312
30 4 1 3.30103 -11.9451 -9.06404
35 4 2 4.27371 -11.8452 -8.54533
33 4 2 3.87455 -10.4846 -10.4559
34 4 2 2.10786 -10.6927 -10.4383
29 4 1 3.02954 -10.6114 -9.7553
32 4 3 2.80068 -9.51693 -8.95371
38 4 2 3.60193 -9.40008 -8.38918
10 2 1 -14.5398 5.67831 -12.534
15 2 2 -15.0142 4.76855 -12.9086
14 2 2 -14.5244 5.65865 -11.4811
17 2 2 -16.3773 6.67839 -12.559
11 2 1 -15.3145 6.8082 -13.0453
13 2 2 -13.505 5.62503 -12.9126
16 2 2 -14.8513 7.77268 -12.6495
9 1 2 -25.7287 -6.22773 23.6887
3 1 3 -25.5786 -7.16549 23.5713
5 1 2 -26.501 -7.37448 20.3547
1 1 1 -26.6619 -7.23819 21.4423
2 1 1 -25.3569 -7.40651 22.2326
8 1 2 -24.9374 -8.42774 22.1443
6 1 2 26.4092 -8.0194 21.8207
4 1 2 26.8028 -6.1995 21.5763
7 1 2 -24.5513 -6.77207 21.8834
ITEM: TIMESTEP
37400
ITEM: NUMBER OF ATOMS
38
ITEM: BOX BOUNDS pp pp pp
-2.6905500000000000e+01 2.6905500000000000e+01
-2.6905500000000000e+01 2.6905500000000000e+01
-2.6905500000000000e+01 2.6905500000000000e+01
ITEM: ATOMS id mol type x y z
21 3 3 -20.7497 -1.42792 -17.6729
27 3 2 -20.7732 -2.41048 -17.8621
26 3 2 -18.6866 -1.59433 -17.7639
20 3 1 -19.5309 -1.12015 -17.1478
25 3 2 -19.5514 -1.52296 -16.1059
28 3 2 -20.0747 0.639804 -15.2955
22 3 3 -20.094 1.20643 -16.1454
19 3 1 -19.2534 0.394109 -17.0488
24 3 2 -19.28 0.831712 -18.0465
23 3 2 -18.2122 0.482051 -16.6048
12 2 3 -15.1908 6.86306 -13.9645
18 2 2 -14.1895 7.12815 -13.9524
37 4 2 2.25414 -12.3739 -6.96987
36 4 2 3.15117 -13.0832 -9.06834
31 4 3 2.18036 -11.8309 -7.6652
30 4 1 3.21957 -12.1018 -8.59298
35 4 2 4.17351 -12.0205 -8.0863
33 4 2 4.10519 -11.3865 -10.3984
34 4 2 2.28466 -11.2868 -10.3167
29 4 1 3.24214 -11.1133 -9.76039
32 4 3 3.44372 -9.80929 -9.37842
38 4 2 4.27049 -9.7148 -8.89791
10 2 1 -14.6014 5.50214 -12.0182
15 2 2 -14.6289 4.54485 -12.6014
14 2 2 -14.9071 5.36635 -11.008
17 2 2 -16.5629 6.20077 -12.4854
11 2 1 -15.5317 6.59998 -12.6042
13 2 2 -13.5919 5.95683 -11.9515
16 2 2 -15.4772 7.59439 -11.9968
9 1 2 -25.4729 -6.41807 23.4065
3 1 3 -25.2668 -7.30785 23.3309
5 1 2 -26.1599 -7.43977 20.0825
1 1 1 -26.399 -7.21918 21.1693
2 1 1 -25.12 -7.53413 21.9143
8 1 2 -24.7564 -8.56551 21.7648
6 1 2 26.6668 -7.87726 21.5468
4 1 2 -26.7758 -6.13372 21.3303
7 1 2 -24.2842 -6.90741 21.5417
ITEM: TIMESTEP
37600
ITEM: NUMBER OF ATOMS
38
ITEM: BOX BOUNDS pp pp pp
-2.6905500000000000e+01 2.6905500000000000e+01
-2.6905500000000000e+01 2.6905500000000000e+01
-2.6905500000000000e+01 2.6905500000000000e+01
ITEM: ATOMS id mol type x y z
21 3 3 -20.9377 -1.22069 -17.8174
27 3 2 -21.0184 -2.09499 -18.1114
26 3 2 -18.9108 -1.55093 -18.1544
20 3 1 -19.6376 -1.2029 -17.3799
25 3 2 -19.5264 -1.7632 -16.4899
28 3 2 -19.5639 0.359443 -15.2345
22 3 3 -19.78 0.923343 -16.0405
19 3 1 -19.1438 0.296668 -17.103
24 3 2 -19.1915 0.919867 -17.9409
23 3 2 -18.0523 0.27958 -16.8276
12 2 3 -14.9211 6.94892 -14.1189
18 2 2 -13.9255 6.66182 -14.1545
37 4 2 2.05024 -12.1669 -6.95374
36 4 2 3.34626 -13.1918 -8.64732
31 4 3 2.07094 -11.701 -7.81306
30 4 1 3.28322 -12.0668 -8.53029
35 4 2 4.17662 -11.6634 -7.97734
33 4 2 3.98624 -11.6641 -10.5205
34 4 2 2.2716 -11.7983 -10.3991
29 4 1 3.16117 -11.403 -9.89809
32 4 3 3.17925 -9.99613 -9.80282
38 4 2 4.07439 -9.7362 -9.62376
10 2 1 -15.1424 5.2903 -12.2876
15 2 2 -15.7702 4.61396 -13.0042
14 2 2 -15.5223 5.19304 -11.2139
17 2 2 -16.3348 6.93223 -12.5632
11 2 1 -15.2802 6.74684 -12.7396
13 2 2 -14.0898 4.87969 -12.3251
16 2 2 -14.7615 7.42429 -12.1465
9 1 2 -26.2473 -6.65336 23.1969
3 1 3 -25.5353 -7.25469 23.1582
5 1 2 -26.3538 -8.2957 20.0287
1 1 1 -26.5111 -8.04497 21.0755
2 1 1 -25.2493 -7.47013 21.7804
8 1 2 -24.4351 -8.23379 21.6861
6 1 2 26.9722 -8.98187 21.6425
4 1 2 26.4862 -7.32045 21.0973
7 1 2 -24.9037 -6.57378 21.2419
ITEM: TIMESTEP
37800
ITEM: NUMBER OF ATOMS
38
ITEM: BOX BOUNDS pp pp pp
-2.6905500000000000e+01 2.6905500000000000e+01
-2.6905500000000000e+01 2.6905500000000000e+01
-2.6905500000000000e+01 2.6905500000000000e+01
ITEM: ATOMS id mol type x y z
21 3 3 -21.4128 -1.30933 -18.0083
27 3 2 -21.6633 -2.23697 -18.1558
26 3 2 -19.3375 -1.5704 -18.4047
20 3 1 -20.005 -1.20031 -17.593
25 3 2 -19.8812 -1.85487 -16.809
28 3 2 -19.9686 0.0153544 -15.3403
22 3 3 -20.3182 0.650374 -16.0169
19 3 1 -19.5836 0.220954 -17.1548
24 3 2 -19.7274 0.845263 -17.9959
23 3 2 -18.5591 0.215785 -16.8757
12 2 3 -14.9284 6.9576 -14.153
18 2 2 -13.9645 6.87038 -13.9304
37 4 2 2.61321 -11.7064 -6.70852
36 4 2 3.44591 -12.8463 -8.60322
31 4 3 2.21646 -11.5796 -7.65522
30 4 1 3.26781 -11.7876 -8.57398
35 4 2 4.25869 -11.277 -8.2442
33 4 2 3.67642 -11.5968 -10.6008
34 4 2 1.89285 -11.7393 -10.1656
29 4 1 2.86046 -11.2341 -9.9271
32 4 3 2.57953 -9.85678 -9.90596
38 4 2 3.41307 -9.40202 -9.78595
10 2 1 -15.3243 5.1931 -12.5472
15 2 2 -15.9428 4.58291 -13.2164
14 2 2 -15.6097 5.0186 -11.492
17 2 2 -16.6223 6.96379 -12.9655
11 2 1 -15.5538 6.65736 -12.9206
13 2 2 -14.2322 4.92715 -12.6182
16 2 2 -15.1179 7.29398 -12.1079
9 1 2 -25.9622 -7.19167 23.5808
3 1 3 -25.4208 -7.9504 23.399
5 1 2 -26.731 -8.10728 20.2072
1 1 1 -26.8232 -7.99579 21.3442
2 1 1 -25.3297 -7.85939 21.984
8 1 2 -24.6306 -8.65566 21.6039
6 1 2 26.4532 -8.9354 21.748
4 1 2 26.4818 -7.04262 21.6257
7 1 2 -24.9723 -6.88315 21.7059
ITEM: TIMESTEP
38000
ITEM: NUMBER OF ATOMS
38
ITEM: BOX BOUNDS pp pp pp
-2.6905500000000000e+01 2.6905500000000000e+01
-2.6905500000000000e+01 2.6905500000000000e+01
-2.6905500000000000e+01 2.6905500000000000e+01
ITEM: ATOMS id mol type x y z
21 3 3 -21.3844 -1.50038 -17.7627
27 3 2 -21.5583 -2.41477 -18.0026
26 3 2 -19.3345 -1.38288 -18.3433
20 3 1 -20.0204 -1.28632 -17.4703
25 3 2 -19.6929 -2.07699 -16.7491
28 3 2 -20.3475 -0.139879 -15.0459
22 3 3 -20.7281 0.404822 -15.8492
19 3 1 -19.8327 0.0778793 -16.8681
24 3 2 -20.0529 0.756481 -17.6384
23 3 2 -18.7874 0.18094 -16.6637
12 2 3 -14.9752 7.01037 -14.3018
18 2 2 -13.9984 6.91956 -14.2283
37 4 2 2.60597 -12.0092 -7.10371
36 4 2 2.67527 -13.0833 -9.01981
31 4 3 2.39917 -11.3806 -7.78122
30 4 1 2.98789 -11.9915 -8.89697
35 4 2 4.12767 -12.0667 -8.86343
33 4 2 2.96783 -11.6375 -10.9975
34 4 2 1.47854 -11.0863 -10.2919
29 4 1 2.60626 -11.1152 -10.1
32 4 3 3.06087 -9.84911 -9.91125
38 4 2 3.98998 -9.90014 -9.91267
10 2 1 -14.9969 5.51564 -12.2881
15 2 2 -15.4208 4.59593 -12.799
14 2 2 -15.3264 5.51127 -11.206
17 2 2 -16.4187 7.07234 -12.9794
11 2 1 -15.3405 6.87416 -12.9826
13 2 2 -13.8175 5.31386 -12.3613
16 2 2 -14.9252 7.70824 -12.3861
9 1 2 -25.406 -7.0924 23.7556
3 1 3 -25.0299 -7.90427 23.3014
5 1 2 -26.6818 -7.76985 20.5237
1 1 1 -26.6581 -7.83374 21.5954
2 1 1 -25.2005 -7.75687 21.9269
8 1 2 -24.6824 -8.62958 21.432
6 1 2 26.6728 -8.83748 21.849
4 1 2 26.5758 -6.95969 21.9985
7 1 2 -24.8088 -6.80222 21.5154
ITEM: TIMESTEP
38200
ITEM: NUMBER OF ATOMS
38
ITEM: BOX BOUNDS pp pp pp
-2.6905500000000000e+01 2.6905500000000000e+01
-2.6905500000000000e+01 2.6905500000000000e+01
-2.6905500000000000e+01 2.6905500000000000e+01
ITEM: ATOMS id mol type x y z
21 3 3 -21.3462 -1.30287 -17.5455
27 3 2 -21.3518 -2.25209 -17.9468
26 3 2 -19.553 -0.915409 -18.5487
20 3 1 -20.0137 -0.897885 -17.4116
25 3 2 -19.4859 -1.6934 -16.7752
28 3 2 -19.936 -0.057916 -14.9394
22 3 3 -20.4514 0.574894 -15.5069
19 3 1 -19.9103 0.531082 -16.8028
24 3 2 -20.5152 1.23987 -17.4609
23 3 2 -18.8141 0.801358 -16.8492
12 2 3 -14.4224 7.33957 -14.0418
18 2 2 -13.4764 7.26582 -13.9462
37 4 2 2.02176 -12.2048 -7.13149
36 4 2 2.59399 -12.9255 -9.16484
31 4 3 2.05641 -11.4439 -7.73604
30 4 1 2.86905 -11.8799 -8.80225
35 4 2 3.89888 -11.8363 -8.45181
33 4 2 3.38554 -11.6936 -10.9276
34 4 2 1.65984 -11.1242 -10.5617
29 4 1 2.73795 -11.1214 -10.1596
32 4 3 3.18246 -9.8764 -10.1449
38 4 2 4.21512 -9.75872 -9.91415
10 2 1 -14.8549 5.50304 -12.4816
15 2 2 -15.3888 5.04088 -13.3576
14 2 2 -15.3081 5.26343 -11.5331
17 2 2 -16.0494 7.29098 -12.6727
11 2 1 -14.9284 7.00458 -12.753
13 2 2 -13.7703 5.14963 -12.4998
16 2 2 -14.4343 7.57489 -11.9321
9 1 2 -25.6612 -7.5068 23.8775
3 1 3 -25.1532 -8.15063 23.3476
5 1 2 -26.8227 -7.13999 20.5542
1 1 1 -26.8335 -7.49695 21.5895
2 1 1 -25.3764 -7.75199 21.9761
8 1 2 -25.0012 -8.61812 21.3336
6 1 2 26.3782 -8.39078 21.8325
4 1 2 26.6192 -6.62047 22.1969
7 1 2 -24.7587 -6.87405 21.7228
ITEM: TIMESTEP
38400
ITEM: NUMBER OF ATOMS
38
ITEM: BOX BOUNDS pp pp pp
-2.6905500000000000e+01 2.6905500000000000e+01
-2.6905500000000000e+01 2.6905500000000000e+01
-2.6905500000000000e+01 2.6905500000000000e+01
ITEM: ATOMS id mol type x y z
21 3 3 -21.0927 -1.52625 -16.9937
27 3 2 -20.8083 -2.39015 -17.3459
28 3 2 -20.3036 0.0559455 -14.3469
26 3 2 -19.32 -0.825212 -17.7188
20 3 1 -19.8932 -0.822255 -16.7577
25 3 2 -19.2739 -1.3404 -16.0135
22 3 3 -20.822 0.64047 -15.0527
24 3 2 -20.769 1.15907 -16.9768
19 3 1 -20.1565 0.603305 -16.2394
23 3 2 -19.2229 1.09086 -16.1526
12 2 3 -14.277 7.56701 -13.8784
18 2 2 -13.4444 7.04953 -14.0714
37 4 2 2.2508 -11.4724 -7.14087
36 4 2 1.93945 -12.7191 -8.89903
31 4 3 2.25133 -10.9249 -7.94565
30 4 1 2.57091 -11.8184 -8.97318
35 4 2 3.63197 -12.0818 -8.76325
33 4 2 2.85059 -11.8917 -11.0233
34 4 2 1.43919 -10.8607 -10.5811
29 4 1 2.47791 -11.1025 -10.3136
32 4 3 3.23374 -9.84095 -10.5203
38 4 2 4.16346 -10.0909 -10.6099
10 2 1 -14.4217 5.85803 -12.1889
15 2 2 -15.1919 5.22159 -12.7397
14 2 2 -14.5237 5.75771 -11.1031
13 2 2 -13.3913 5.43777 -12.4313
17 2 2 -15.511 7.66071 -12.3214
11 2 1 -14.4726 7.32727 -12.5417
16 2 2 -13.7882 7.82488 -11.9398
9 1 2 -25.8136 -7.10221 23.8911
3 1 3 -25.268 -7.83977 23.5275
1 1 1 -26.9247 -7.67305 21.7762
2 1 1 -25.457 -7.8133 22.1031
8 1 2 -25.1604 -8.80666 21.74
7 1 2 -24.8722 -6.9283 21.5998
5 1 2 26.6808 -7.60772 20.6957
6 1 2 26.2309 -8.46598 22.1694
4 1 2 26.5421 -6.67081 22.1134
ITEM: TIMESTEP
38600
ITEM: NUMBER OF ATOMS
38
ITEM: BOX BOUNDS pp pp pp
-2.6905500000000000e+01 2.6905500000000000e+01
-2.6905500000000000e+01 2.6905500000000000e+01
-2.6905500000000000e+01 2.6905500000000000e+01
ITEM: ATOMS id mol type x y z
21 3 3 -21.1775 -1.19558 -16.8494
27 3 2 -20.974 -2.08914 -17.1403
28 3 2 -20.5762 0.428923 -13.9636
26 3 2 -19.2414 -0.669904 -17.2581
20 3 1 -19.9573 -0.644893 -16.4676
25 3 2 -19.4853 -1.30036 -15.6661
22 3 3 -20.8953 1.05813 -14.7214
24 3 2 -20.5767 1.47118 -16.7917
19 3 1 -20.1257 0.867408 -15.9857
23 3 2 -19.0876 1.28288 -15.774
12 2 3 -14.1665 7.49374 -13.5944
18 2 2 -13.2367 7.41211 -13.5467
37 4 2 2.6882 -11.0994 -6.69399
36 4 2 2.08038 -12.79 -8.22602
31 4 3 2.40035 -10.8544 -7.59936
30 4 1 2.75098 -11.8868 -8.4807
35 4 2 3.79076 -12.1191 -8.22413
33 4 2 2.89182 -12.4405 -10.4959
34 4 2 1.55292 -11.417 -10.2804
29 4 1 2.54108 -11.5556 -9.95729
32 4 3 3.23265 -10.445 -10.4378
38 4 2 4.12494 -10.4871 -10.0697
10 2 1 -14.2535 5.54786 -12.1157
15 2 2 -14.7013 5.00269 -12.9758
14 2 2 -14.7204 5.17209 -11.156
13 2 2 -13.1911 5.29704 -12.0809
17 2 2 -15.7675 7.11279 -12.2205
11 2 1 -14.6318 7.04049 -12.2713
16 2 2 -14.2052 7.65238 -11.382
9 1 2 -24.8807 -6.26066 23.6886
3 1 3 -25.2724 -7.16328 23.8007
1 1 1 -26.7453 -6.91935 21.9088
2 1 1 -25.6025 -7.66129 22.5162
8 1 2 -25.746 -8.763 22.5116
7 1 2 -24.6724 -7.48729 21.8651
5 1 2 -26.8867 -7.22814 20.8071
6 1 2 26.227 -7.17978 22.52
4 1 2 -26.6309 -5.81795 21.8886
ITEM: TIMESTEP
38800
ITEM: NUMBER OF ATOMS
38
ITEM: BOX BOUNDS pp pp pp
-2.6905500000000000e+01 2.6905500000000000e+01
-2.6905500000000000e+01 2.6905500000000000e+01
-2.6905500000000000e+01 2.6905500000000000e+01
ITEM: ATOMS id mol type x y z
21 3 3 -21.1094 -1.24155 -16.7045
27 3 2 -20.7073 -2.13214 -16.9296
28 3 2 -20.722 0.300459 -14.2599
26 3 2 -19.4457 -0.251342 -17.5566
20 3 1 -20.0144 -0.380979 -16.5794
25 3 2 -19.2465 -0.780297 -15.8246
22 3 3 -21.2007 0.881332 -14.8823
24 3 2 -21.0194 1.43655 -16.8569
19 3 1 -20.4622 0.971599 -16.0343
23 3 2 -19.4893 1.64876 -15.8462
12 2 3 -14.0665 7.59827 -13.69
18 2 2 -13.1011 7.84369 -13.602
37 4 2 3.13755 -11.4717 -6.68186
36 4 2 1.92371 -12.7447 -8.32453
31 4 3 2.68764 -10.9959 -7.49021
30 4 1 2.72904 -11.9508 -8.48275
35 4 2 3.77829 -12.427 -8.66333
33 4 2 2.36745 -12.2191 -10.6162
34 4 2 1.45761 -10.8171 -9.78913
29 4 1 2.44304 -11.3912 -9.85962
32 4 3 3.48731 -10.4178 -10.0966
38 4 2 4.39371 -10.9257 -10.0657
10 2 1 -13.9216 5.63941 -12.2846
15 2 2 -14.3523 5.00206 -13.0274
14 2 2 -14.2837 5.33848 -11.2283
13 2 2 -12.8056 5.55641 -12.373
17 2 2 -15.5665 6.94099 -12.4544
11 2 1 -14.4365 7.04145 -12.5045
16 2 2 -14.0746 7.55146 -11.5536
9 1 2 -24.9216 -7.0829 24.4423
3 1 3 -25.2227 -7.88601 23.9757
1 1 1 -26.6068 -6.68622 22.263
2 1 1 -25.4997 -7.7207 22.5984
8 1 2 -25.8326 -8.74265 22.215
7 1 2 -24.6482 -7.52951 21.9962
5 1 2 -26.8836 -6.65933 21.2125
6 1 2 26.26 -6.88282 22.8331
4 1 2 -26.1775 -5.70096 22.5434
ITEM: TIMESTEP
39000
ITEM: NUMBER OF ATOMS
38
ITEM: BOX BOUNDS pp pp pp
-2.6905500000000000e+01 2.6905500000000000e+01
-2.6905500000000000e+01 2.6905500000000000e+01
-2.6905500000000000e+01 2.6905500000000000e+01
ITEM: ATOMS id mol type x y z
21 3 3 -20.988 -1.28456 -16.695
27 3 2 -20.6118 -2.1516 -16.8266
28 3 2 -20.8439 1.18772 -14.2645
26 3 2 -19.1151 -0.333287 -16.964
20 3 1 -19.9283 -0.408095 -16.3174
25 3 2 -19.4893 -0.679832 -15.3485
22 3 3 -21.2865 1.31671 -15.1959
24 3 2 -20.6677 1.52518 -17.1366
19 3 1 -20.3412 1.09087 -16.1879
23 3 2 -19.4167 1.6262 -15.9126
12 2 3 -13.9604 7.68304 -13.9733
18 2 2 -12.995 7.96705 -13.9948
37 4 2 2.30119 -11.326 -6.25678
36 4 2 1.28215 -12.8674 -7.86932
31 4 3 2.36184 -11.0782 -7.20209
30 4 1 2.28573 -12.2308 -7.98863
35 4 2 3.16544 -12.9372 -7.79683
33 4 2 2.3431 -12.6999 -10.141
34 4 2 1.4748 -11.2738 -9.68276
29 4 1 2.37407 -11.8169 -9.48263
32 4 3 3.4412 -10.9615 -9.73545
38 4 2 4.17409 -11.5003 -9.92813
10 2 1 -13.4947 5.85347 -12.5819
15 2 2 -13.6503 5.18696 -13.4498
14 2 2 -13.7561 5.29246 -11.6945
13 2 2 -12.4383 6.13101 -12.4547
17 2 2 -15.3442 6.85134 -12.7439
11 2 1 -14.2775 7.13132 -12.7162
16 2 2 -14.0674 7.76984 -11.8671
9 1 2 -24.9925 -6.85463 24.509
3 1 3 -25.4165 -7.69841 24.105
1 1 1 -26.4084 -6.29264 22.3659
2 1 1 -25.6099 -7.55924 22.7581
8 1 2 -26.1461 -8.49463 22.4766
7 1 2 -24.5772 -7.51563 22.2739
5 1 2 -26.4274 -6.25272 21.2375
6 1 2 26.3418 -6.31894 22.702
4 1 2 -25.9936 -5.36046 22.754
ITEM: TIMESTEP
39200
ITEM: NUMBER OF ATOMS
38
ITEM: BOX BOUNDS pp pp pp
-2.6905500000000000e+01 2.6905500000000000e+01
-2.6905500000000000e+01 2.6905500000000000e+01
-2.6905500000000000e+01 2.6905500000000000e+01
ITEM: ATOMS id mol type x y z
21 3 3 -21.0735 -0.970356 -17.1689
27 3 2 -21.1571 -1.96352 -17.0082
26 3 2 -19.0815 -0.912146 -16.8204
20 3 1 -20.0455 -0.530019 -16.3073
25 3 2 -20.1232 -1.03702 -15.2622
28 3 2 -21.2053 1.06845 -14.6955
22 3 3 -21.1467 1.5632 -15.5596
24 3 2 -19.8681 1.62121 -17.0116
19 3 1 -19.996 1.01565 -16.0843
23 3 2 -19.1836 1.26055 -15.3578
12 2 3 -13.7106 7.86989 -14.0689
18 2 2 -12.8808 8.25913 -13.7232
36 4 2 2.22486 -13.3503 -8.09794
31 4 3 2.34233 -11.4507 -7.33853
30 4 1 2.86285 -12.4122 -8.18076
35 4 2 3.91645 -12.6953 -8.00077
33 4 2 3.01113 -12.948 -10.1635
34 4 2 1.51131 -11.8562 -9.82648
29 4 1 2.67359 -12.0145 -9.66854
32 4 3 3.38812 -10.894 -10.0051
38 4 2 4.30339 -11.1673 -9.94317
14 2 2 -14.424 5.96112 -11.2024
17 2 2 -15.3356 6.73358 -13.417
10 2 1 -13.7369 6.41147 -11.9817
15 2 2 -13.2313 5.58245 -12.5165
13 2 2 -12.9157 6.96109 -11.5307
11 2 1 -14.4979 7.31514 -12.9921
16 2 2 -14.9548 8.05513 -12.3341
37 4 2 2.51727 -11.7836 -6.4165
9 1 2 -24.7879 -6.29749 24.5726
3 1 3 -25.2755 -7.10012 24.247
2 1 1 -25.2762 -7.18762 22.8831
8 1 2 -25.6787 -8.1306 22.5587
7 1 2 -24.2759 -7.13546 22.4421
1 1 1 -26.1061 -6.04796 22.258
5 1 2 -26.0756 -6.23172 21.0987
4 1 2 -25.7499 -5.01708 22.4765
6 1 2 26.6461 -6.03096 22.574
ITEM: TIMESTEP
39400
ITEM: NUMBER OF ATOMS
38
ITEM: BOX BOUNDS pp pp pp
-2.6905500000000000e+01 2.6905500000000000e+01
-2.6905500000000000e+01 2.6905500000000000e+01
-2.6905500000000000e+01 2.6905500000000000e+01
ITEM: ATOMS id mol type x y z
21 3 3 -21.0412 -0.769027 -17.164
27 3 2 -21.1313 -1.7859 -17.2671
26 3 2 -19.1427 -0.896865 -16.3258
20 3 1 -20.1699 -0.589448 -16.0742
25 3 2 -20.5327 -1.19693 -15.1223
28 3 2 -21.7993 0.855459 -14.7793
22 3 3 -21.4031 1.40979 -15.5274
24 3 2 -19.7337 1.40874 -16.5146
19 3 1 -20.1768 0.880985 -15.7145
23 3 2 -19.5012 0.909279 -14.8013
12 2 3 -13.7441 7.83528 -14.2517
18 2 2 -13.0351 8.45 -13.9076
36 4 2 2.27178 -13.152 -8.11222
31 4 3 2.5362 -11.1814 -7.63139
30 4 1 2.93102 -12.322 -8.44654
35 4 2 3.98464 -12.6826 -8.26234
33 4 2 2.86502 -12.9319 -10.454
34 4 2 1.58369 -11.7441 -10.1005
29 4 1 2.66817 -12.0232 -9.89272
32 4 3 3.58658 -11.022 -10.3796
38 4 2 4.55189 -11.1727 -10.1089
14 2 2 -14.0363 5.88826 -11.4703
17 2 2 -15.2831 6.66918 -13.4839
10 2 1 -13.5188 6.39846 -12.2535
15 2 2 -13.1671 5.65804 -12.9226
13 2 2 -12.6777 7.02703 -11.8039
11 2 1 -14.4253 7.26343 -13.0747
16 2 2 -14.7977 8.07896 -12.4223
37 4 2 2.66199 -11.3998 -6.68036
9 1 2 -24.4995 -6.40298 24.2152
3 1 3 -25.0756 -7.22398 24.1686
2 1 1 -25.4919 -7.41998 22.8579
8 1 2 -26.0625 -8.34391 22.7114
7 1 2 -24.6032 -7.43132 22.185
1 1 1 -26.4953 -6.2517 22.4842
5 1 2 -26.691 -6.23637 21.3549
4 1 2 -25.9902 -5.29332 22.8114
6 1 2 26.3208 -6.45939 23.0158
ITEM: TIMESTEP
39600
ITEM: NUMBER OF ATOMS
38
ITEM: BOX BOUNDS pp pp pp
-2.6905500000000000e+01 2.6905500000000000e+01
-2.6905500000000000e+01 2.6905500000000000e+01
-2.6905500000000000e+01 2.6905500000000000e+01
ITEM: ATOMS id mol type x y z
21 3 3 -20.6418 -0.791123 -17.226
27 3 2 -20.7051 -1.76657 -17.3643
26 3 2 -19.187 -1.05849 -15.7919
20 3 1 -20.1585 -0.527363 -15.9527
25 3 2 -20.8398 -0.906605 -15.2413
28 3 2 -21.5811 1.60197 -15.0011
22 3 3 -20.9279 1.86002 -15.7572
24 3 2 -19.1147 1.34905 -16.3909
19 3 1 -19.8396 0.965087 -15.6955
23 3 2 -19.5013 1.02171 -14.6219
12 2 3 -13.9998 7.42783 -14.107
18 2 2 -13.0431 7.72191 -14.1239
36 4 2 1.85115 -12.6555 -8.78917
31 4 3 2.90545 -11.0428 -7.90718
30 4 1 2.83842 -12.1079 -8.83625
35 4 2 3.67592 -12.7477 -8.5812
33 4 2 2.98736 -12.5639 -11.0286
34 4 2 2.12718 -11.1387 -10.6693
29 4 1 2.98566 -11.6729 -10.3612
32 4 3 4.15029 -10.9507 -10.6484
38 4 2 4.91046 -11.5092 -10.4494
14 2 2 -13.551 5.86194 -11.1592
17 2 2 -15.2713 6.73391 -12.6514
10 2 1 -13.2443 6.24744 -12.1166
15 2 2 -13.2157 5.36286 -12.7878
13 2 2 -12.265 6.703 -12.1658
11 2 1 -14.2451 7.24658 -12.6708
16 2 2 -14.2952 8.25733 -12.092
37 4 2 2.68401 -11.401 -7.00942
9 1 2 -24.4251 -6.55081 24.0111
3 1 3 -25.0209 -7.27678 24.0031
2 1 1 -25.6929 -7.31798 22.8507
8 1 2 -26.3957 -8.15605 22.8725
7 1 2 -24.9456 -7.53172 21.9991
1 1 1 -26.4924 -6.03749 22.6829
5 1 2 26.7743 -6.0323 21.7113
4 1 2 -25.7881 -5.11769 22.6199
6 1 2 26.5948 -5.87382 23.5002
ITEM: TIMESTEP
39800
ITEM: NUMBER OF ATOMS
38
ITEM: BOX BOUNDS pp pp pp
-2.6905500000000000e+01 2.6905500000000000e+01
-2.6905500000000000e+01 2.6905500000000000e+01
-2.6905500000000000e+01 2.6905500000000000e+01
ITEM: ATOMS id mol type x y z
21 3 3 -20.645 -0.369701 -17.6074
27 3 2 -20.9293 -1.30369 -17.7087
26 3 2 -19.0654 -1.12063 -16.4613
20 3 1 -19.943 -0.442774 -16.3731
25 3 2 -20.6954 -0.984412 -15.7444
28 3 2 -21.367 1.3638 -15.0881
22 3 3 -20.7007 1.81124 -15.7456
24 3 2 -18.8292 1.33674 -16.6186
19 3 1 -19.5921 0.94854 -15.8612
23 3 2 -19.0842 0.91418 -14.8971
12 2 3 -13.9436 7.52765 -14.254
18 2 2 -13.1138 7.44616 -14.709
36 4 2 1.52884 -12.2537 -9.12441
31 4 3 2.6666 -10.8839 -8.00242
30 4 1 2.62594 -11.9309 -8.9721
35 4 2 3.3869 -12.7741 -8.59917
33 4 2 2.85622 -12.1587 -11.1355
34 4 2 2.3647 -10.526 -10.6549
29 4 1 3.05585 -11.3693 -10.3515
32 4 3 4.29239 -10.7946 -10.4193
38 4 2 5.02635 -11.406 -10.3061
14 2 2 -12.9716 6.86664 -11.1654
17 2 2 -14.8086 7.8782 -12.483
10 2 1 -12.9829 6.70449 -12.2842
15 2 2 -13.4326 5.70731 -12.434
13 2 2 -11.9658 6.71631 -12.7232
11 2 1 -13.8047 7.78842 -12.9114
16 2 2 -13.3048 8.81694 -12.8212
37 4 2 2.2891 -11.2552 -7.14697
9 1 2 -24.431 -7.34045 24.2234
3 1 3 -25.067 -7.98257 23.9224
2 1 1 -25.7463 -7.40513 22.8052
8 1 2 -26.5552 -8.11589 22.4796
7 1 2 -25.0579 -7.51807 21.9462
1 1 1 -26.215 -5.91413 22.8859
5 1 2 27.1528 -5.492 21.9673
4 1 2 -25.3455 -5.28624 23.2039
6 1 2 26.7768 -5.98064 23.662
ITEM: TIMESTEP
40000
ITEM: NUMBER OF ATOMS
38
ITEM: BOX BOUNDS pp pp pp
-2.6905500000000000e+01 2.6905500000000000e+01
-2.6905500000000000e+01 2.6905500000000000e+01
-2.6905500000000000e+01 2.6905500000000000e+01
ITEM: ATOMS id mol type x y z
21 3 3 -20.7893 -0.0797973 -17.6286
27 3 2 -21.272 -0.886696 -17.9954
26 3 2 -19.1538 -1.00896 -16.796
20 3 1 -20.0587 -0.390645 -16.5224
25 3 2 -20.6378 -0.926955 -15.7151
28 3 2 -21.2193 1.27147 -14.865
22 3 3 -20.683 1.68841 -15.5308
24 3 2 -18.9014 1.43905 -16.462
19 3 1 -19.573 0.844293 -15.822
23 3 2 -18.962 0.616928 -14.8677
12 2 3 -14.1953 7.68935 -13.8705
18 2 2 -13.9692 6.94348 -14.4249
36 4 2 1.4938 -12.042 -9.09573
31 4 3 2.65231 -10.7296 -8.04354
30 4 1 2.57697 -11.7637 -8.97988
35 4 2 3.13977 -12.6819 -8.60896
33 4 2 3.01966 -12.1675 -11.0722
34 4 2 2.56085 -10.465 -10.7426
29 4 1 3.17012 -11.3274 -10.3516
32 4 3 4.53392 -10.858 -10.2694
38 4 2 5.00419 -11.5875 -9.88043
14 2 2 -11.8472 7.00385 -11.4973
17 2 2 -13.2885 8.85602 -12.4619
10 2 1 -12.7083 6.75851 -12.17
15 2 2 -13.5639 6.50432 -11.5118
13 2 2 -12.492 5.82521 -12.7369
11 2 1 -13.0577 7.93683 -13.1086
16 2 2 -12.1993 8.19942 -13.7257
37 4 2 2.28816 -11.0352 -7.18538
9 1 2 -24.7647 -7.68374 24.5866
3 1 3 -24.9485 -8.25741 23.7503
2 1 1 -25.0124 -7.43337 22.5981
8 1 2 -25.2347 -8.03129 21.6685
7 1 2 -24.0486 -6.95138 22.4563
1 1 1 -26.0564 -6.35782 22.7508
5 1 2 -25.9853 -5.71715 21.7927
4 1 2 -25.9266 -5.81167 23.6924
6 1 2 26.7854 -6.89517 22.7844
ITEM: TIMESTEP
40200
ITEM: NUMBER OF ATOMS
38
ITEM: BOX BOUNDS pp pp pp
-2.6905500000000000e+01 2.6905500000000000e+01
-2.6905500000000000e+01 2.6905500000000000e+01
-2.6905500000000000e+01 2.6905500000000000e+01
ITEM: ATOMS id mol type x y z
27 3 2 -21.1248 -0.517213 -18.0572
25 3 2 -20.728 -0.710027 -15.7593
26 3 2 -19.2955 -0.796977 -16.756
20 3 1 -20.0701 -0.139578 -16.4388
21 3 3 -20.7589 0.287185 -17.5818
28 3 2 -21.3078 1.49029 -14.869
22 3 3 -20.6261 1.94487 -15.4472
24 3 2 -18.8218 1.67936 -16.476
19 3 1 -19.4828 1.09998 -15.77
23 3 2 -18.8375 0.782203 -14.8481
12 2 3 -14.1435 7.79645 -14.093
18 2 2 -14.7048 7.04853 -13.924
16 2 2 -12.2973 6.89506 -14.1442
36 4 2 1.35705 -11.3899 -9.64338
31 4 3 2.48891 -11.4003 -7.95376
30 4 1 2.33683 -11.6545 -9.39507
35 4 2 2.44339 -12.7951 -9.48893
33 4 2 3.39495 -11.126 -11.2977
34 4 2 3.33466 -9.77891 -10.1827
29 4 1 3.42647 -10.9059 -10.2652
32 4 3 4.78658 -11.0985 -9.87337
38 4 2 4.85105 -12.1109 -10.1088
37 4 2 1.7859 -12.01 -7.48713
13 2 2 -13.4635 6.03232 -12.1919
15 2 2 -13.5325 7.65348 -11.4859
14 2 2 -11.899 6.84691 -11.7755
17 2 2 -12.3997 8.50959 -13.3357
10 2 1 -12.9684 7.00002 -12.1082
11 2 1 -12.9353 7.58011 -13.4714
9 1 2 -25.0497 -8.1113 24.2918
3 1 3 -25.3299 -8.43101 23.3962
2 1 1 -25.0568 -7.55275 22.3949
8 1 2 -25.1654 -8.03528 21.4164
7 1 2 -23.9555 -7.21282 22.457
6 1 2 26.8462 -6.79163 22.534
1 1 1 -25.9533 -6.36975 22.5436
5 1 2 -25.867 -5.67843 21.7549
4 1 2 -25.7957 -5.86495 23.4797
ITEM: TIMESTEP
40400
ITEM: NUMBER OF ATOMS
38
ITEM: BOX BOUNDS pp pp pp
-2.6905500000000000e+01 2.6905500000000000e+01
-2.6905500000000000e+01 2.6905500000000000e+01
-2.6905500000000000e+01 2.6905500000000000e+01
ITEM: ATOMS id mol type x y z
27 3 2 -21.2659 -0.621648 -17.8365
25 3 2 -20.9035 -0.559358 -15.546
26 3 2 -19.4622 -1.23249 -16.3576
20 3 1 -20.1139 -0.331865 -16.266
21 3 3 -20.7474 0.109966 -17.4781
28 3 2 -20.8331 1.73312 -14.7793
22 3 3 -20.1139 1.94433 -15.3785
24 3 2 -18.3722 1.06559 -16.2355
19 3 1 -19.2857 0.780314 -15.6085
23 3 2 -18.9136 0.504166 -14.6169
12 2 3 -14.2711 7.9517 -13.9521
18 2 2 -14.8643 7.21339 -14.0625
16 2 2 -12.5365 6.77616 -14.1588
36 4 2 1.06479 -11.5434 -9.76314
31 4 3 2.2499 -11.2826 -8.02715
30 4 1 2.09455 -11.7526 -9.33042
35 4 2 2.25053 -12.8449 -9.3081
33 4 2 3.06736 -11.3201 -11.2776
34 4 2 2.97118 -10.0322 -10.1713
29 4 1 3.16839 -11.041 -10.2022
32 4 3 4.51591 -11.3173 -9.76988
38 4 2 4.7148 -12.3431 -9.97433
37 4 2 1.74185 -11.8622 -7.35922
13 2 2 -14.0231 6.0496 -12.2114
15 2 2 -13.872 7.65759 -11.2999
14 2 2 -12.4144 6.59229 -11.5592
17 2 2 -12.447 8.33741 -13.2266
10 2 1 -13.3598 6.93991 -11.9899
11 2 1 -13.0516 7.46027 -13.4192
9 1 2 -25.8357 -8.4149 24.1823
3 1 3 -25.5938 -8.52443 23.2251
2 1 1 -25.2221 -7.27408 22.7084
8 1 2 -24.7858 -7.45114 21.7146
7 1 2 -24.4066 -6.81863 23.3064
6 1 2 26.5681 -6.75312 21.9666
1 1 1 -26.4385 -6.34872 22.6914
5 1 2 -26.0562 -5.31779 22.2944
4 1 2 -26.9488 -6.12275 23.7126
ITEM: TIMESTEP
40600
ITEM: NUMBER OF ATOMS
38
ITEM: BOX BOUNDS pp pp pp
-2.6905500000000000e+01 2.6905500000000000e+01
-2.6905500000000000e+01 2.6905500000000000e+01
-2.6905500000000000e+01 2.6905500000000000e+01
ITEM: ATOMS id mol type x y z
27 3 2 -21.4624 -0.253128 -17.9284
25 3 2 -21.239 -0.66222 -15.7097
26 3 2 -19.6475 -1.14374 -16.6348
20 3 1 -20.354 -0.268292 -16.3058
21 3 3 -20.8204 0.353158 -17.4809
28 3 2 -21.1277 1.54038 -14.6839
22 3 3 -20.3917 1.87643 -15.2008
24 3 2 -18.6938 1.14062 -16.0875
19 3 1 -19.5765 0.746018 -15.4821
23 3 2 -19.1782 0.288754 -14.5813
12 2 3 -14.529 8.48325 -14.0052
18 2 2 -15.4467 8.12315 -13.7981
16 2 2 -14.0858 6.55768 -14.2395
36 4 2 0.971321 -11.9529 -9.22207
31 4 3 2.47212 -11.6049 -7.89312
30 4 1 2.08356 -12.0339 -9.12868
35 4 2 2.4856 -13.0992 -9.2388
33 4 2 2.47853 -11.2146 -11.1584
34 4 2 2.5685 -10.0002 -9.7741
29 4 1 2.79025 -11.0809 -10.1033
32 4 3 4.16764 -11.2637 -9.99243
38 4 2 4.42278 -12.1861 -10.1721
37 4 2 1.98554 -12.138 -7.16117
13 2 2 -14.5723 6.92427 -11.8895
15 2 2 -13.1353 8.07034 -11.8533
14 2 2 -12.7974 6.30415 -12.0736
17 2 2 -12.6192 7.63456 -14.3101
10 2 1 -13.5254 7.14594 -12.278
11 2 1 -13.6173 7.46395 -13.7608
9 1 2 -25.6122 -7.93585 24.0606
3 1 3 -25.3781 -8.20574 23.1527
2 1 1 -25.0925 -7.03271 22.4433
8 1 2 -24.7568 -7.36631 21.389
7 1 2 -24.325 -6.40903 22.9378
6 1 2 26.6823 -6.87229 21.856
1 1 1 -26.3714 -6.16527 22.3139
5 1 2 -26.1236 -5.32714 21.6736
4 1 2 -26.8001 -5.78667 23.2481
ITEM: TIMESTEP
40800
ITEM: NUMBER OF ATOMS
38
ITEM: BOX BOUNDS pp pp pp
-2.6905500000000000e+01 2.6905500000000000e+01
-2.6905500000000000e+01 2.6905500000000000e+01
-2.6905500000000000e+01 2.6905500000000000e+01
ITEM: ATOMS id mol type x y z
27 3 2 -20.8502 -0.773514 -18.1732
25 3 2 -21.0339 -0.786439 -15.8336
26 3 2 -19.4272 -1.28999 -16.4061
20 3 1 -20.1915 -0.430059 -16.3716
21 3 3 -20.6491 0.0496631 -17.5822
28 3 2 -21.378 1.29126 -14.679
22 3 3 -20.5268 1.6843 -15.1146
24 3 2 -18.7473 1.07518 -15.8039
19 3 1 -19.7093 0.582357 -15.4679
23 3 2 -19.4123 0.0831899 -14.4683
12 2 3 -14.8905 8.08745 -14.253
18 2 2 -15.6202 7.3251 -14.355
16 2 2 -13.4012 6.72602 -14.4839
36 4 2 1.07093 -12.3954 -9.18471
31 4 3 2.38771 -11.9908 -7.63498
30 4 1 2.17226 -12.3027 -9.00263
35 4 2 2.65106 -13.2811 -9.32209
33 4 2 2.40009 -11.3651 -10.9313
34 4 2 2.06623 -10.4015 -9.45254
29 4 1 2.65821 -11.2274 -9.89441
32 4 3 4.03044 -10.9824 -9.80862
38 4 2 4.50828 -11.6933 -10.2757
37 4 2 2.21016 -12.7385 -7.00645
13 2 2 -14.7405 5.89361 -12.4391
15 2 2 -14.2428 7.41871 -11.6136
14 2 2 -13.0002 6.1288 -12.0344
17 2 2 -12.9896 8.1833 -13.543
10 2 1 -13.9354 6.66976 -12.3925
11 2 1 -13.7316 7.4382 -13.7427
9 1 2 -25.5868 -7.76787 23.9758
3 1 3 -25.0834 -7.93849 23.1423
2 1 1 -25.1189 -6.81252 22.3626
8 1 2 -24.7309 -7.07173 21.3342
7 1 2 -24.5198 -6.05793 22.8301
6 1 2 26.7142 -7.18497 21.7124
1 1 1 -26.5625 -6.41861 22.1761
5 1 2 -26.5479 -5.48608 21.6076
4 1 2 -27.0165 -6.20018 23.195
ITEM: TIMESTEP
41000
ITEM: NUMBER OF ATOMS
38
ITEM: BOX BOUNDS pp pp pp
-2.6905500000000000e+01 2.6905500000000000e+01
-2.6905500000000000e+01 2.6905500000000000e+01
-2.6905500000000000e+01 2.6905500000000000e+01
ITEM: ATOMS id mol type x y z
27 3 2 -21.7872 -0.196349 -18.1205
25 3 2 -21.3669 -0.959986 -16.0856
26 3 2 -19.9781 -1.18965 -17.17
20 3 1 -20.619 -0.417179 -16.6934
21 3 3 -21.1915 0.371272 -17.6744
28 3 2 -20.9463 1.41304 -14.5329
22 3 3 -20.3582 1.60325 -15.3444
24 3 2 -18.8487 0.832583 -16.4172
19 3 1 -19.695 0.466181 -15.8133
23 3 2 -19.2894 -0.149056 -14.9127
12 2 3 -14.5229 8.09862 -14.086
18 2 2 -15.4813 7.88187 -14.1155
16 2 2 -14.2236 6.06368 -13.9254
36 4 2 0.947464 -12.6458 -8.54672
31 4 3 2.643 -11.8643 -7.53728
30 4 1 2.05276 -12.4149 -8.68495
35 4 2 2.56783 -13.3213 -9.06906
33 4 2 1.50758 -11.8612 -10.7012
34 4 2 1.54266 -10.5623 -9.50023
29 4 1 2.07833 -11.434 -9.8407
32 4 3 3.38888 -11.0852 -10.3731
38 4 2 3.83802 -11.8995 -10.7622
37 4 2 2.70377 -12.5929 -6.79166
13 2 2 -15.2679 6.72174 -11.7928
15 2 2 -14.0735 7.99136 -11.3345
14 2 2 -13.5407 6.2585 -11.4671
17 2 2 -12.8127 7.2723 -13.5052
10 2 1 -14.196 7.03279 -11.9257
11 2 1 -13.9094 7.06771 -13.4028
9 1 2 -25.1224 -8.18116 23.6644
3 1 3 -24.7323 -8.18691 22.7941
2 1 1 -24.804 -6.8422 22.3889
8 1 2 -24.3606 -6.77055 21.4242
7 1 2 -24.164 -6.31371 23.097
6 1 2 27.0963 -6.66156 21.4111
1 1 1 -26.1103 -6.23366 22.2371
5 1 2 -25.9018 -5.18842 21.974
4 1 2 -26.6561 -6.27359 23.1761
ITEM: TIMESTEP
41200
ITEM: NUMBER OF ATOMS
38
ITEM: BOX BOUNDS pp pp pp
-2.6905500000000000e+01 2.6905500000000000e+01
-2.6905500000000000e+01 2.6905500000000000e+01
-2.6905500000000000e+01 2.6905500000000000e+01
ITEM: ATOMS id mol type x y z
27 3 2 -21.6979 0.43736 -18.823
25 3 2 -21.7363 -0.770581 -16.6741
20 3 1 -20.8729 -0.2476 -17.1333
26 3 2 -20.2892 -0.945707 -17.7331
23 3 2 -19.743 -0.466734 -15.2821
21 3 3 -21.2482 0.847501 -18.0334
28 3 2 -21.4083 1.22566 -14.9347
22 3 3 -20.5645 1.49674 -15.3659
24 3 2 -19.0035 0.73011 -16.4455
19 3 1 -19.9916 0.350168 -15.9835
16 2 2 -13.7262 5.93319 -13.2249
12 2 3 -14.7976 7.62448 -13.9732
18 2 2 -15.6858 7.23374 -13.7765
36 4 2 0.602321 -12.5932 -8.09939
31 4 3 2.62212 -11.8732 -7.62145
30 4 1 1.64989 -12.4027 -8.58384
35 4 2 1.98055 -13.351 -9.05958
33 4 2 0.601103 -11.4477 -10.1857
34 4 2 1.1844 -10.3214 -9.08353
29 4 1 1.49085 -11.2682 -9.58759
32 4 3 2.66032 -10.869 -10.3417
38 4 2 2.73371 -11.5157 -11.0935
37 4 2 2.7509 -12.5481 -6.93216
13 2 2 -15.0674 6.72016 -11.3589
14 2 2 -13.3083 6.88338 -10.8853
15 2 2 -14.2976 8.30792 -11.4578
10 2 1 -14.1331 7.23111 -11.5782
11 2 1 -13.8129 7.0559 -13.0929
17 2 2 -12.8307 7.57991 -13.3205
9 1 2 -25.7315 -8.38445 22.9998
3 1 3 -24.8917 -8.23774 22.5261
2 1 1 -24.8458 -6.76103 22.5245
8 1 2 -23.9445 -6.42836 21.9481
7 1 2 -24.6139 -6.33572 23.5885
6 1 2 -26.3234 -6.55132 20.8065
1 1 1 -26.1105 -6.17726 21.8703
5 1 2 -26.0156 -5.04376 21.8377
4 1 2 26.8252 -6.4434 22.5209
ITEM: TIMESTEP
41400
ITEM: NUMBER OF ATOMS
38
ITEM: BOX BOUNDS pp pp pp
-2.6905500000000000e+01 2.6905500000000000e+01
-2.6905500000000000e+01 2.6905500000000000e+01
-2.6905500000000000e+01 2.6905500000000000e+01
ITEM: ATOMS id mol type x y z
27 3 2 -21.4508 0.580743 -18.8674
25 3 2 -21.7248 -0.462388 -16.8623
20 3 1 -20.6876 -0.0510002 -17.1249
26 3 2 -20.0731 -0.821133 -17.5603
23 3 2 -19.7679 -0.0618621 -15.1487
21 3 3 -20.921 0.926724 -18.0394
28 3 2 -21.3676 1.30557 -14.7306
22 3 3 -20.6627 1.69504 -15.3765
24 3 2 -19.0799 1.05231 -16.3059
19 3 1 -20.025 0.608376 -15.9233
16 2 2 -13.9129 5.94032 -13.1212
12 2 3 -14.4369 7.86132 -13.511
18 2 2 -15.3626 7.54373 -13.3731
36 4 2 0.935771 -12.5131 -7.68506
31 4 3 2.9937 -12.1393 -7.67379
30 4 1 1.74735 -12.3501 -8.40806
35 4 2 1.71234 -13.319 -9.03398
33 4 2 0.448045 -11.3527 -9.86169
34 4 2 1.53095 -10.2507 -8.73049
29 4 1 1.45693 -11.2056 -9.37438
32 4 3 2.5414 -11.0234 -10.2761
38 4 2 2.35677 -11.719 -10.9727
37 4 2 3.13333 -12.8806 -7.11175
13 2 2 -14.8311 6.91658 -10.9432
14 2 2 -13.0897 6.77554 -10.6516
15 2 2 -13.789 8.40705 -11.1825
10 2 1 -13.8348 7.26827 -11.2921
11 2 1 -13.6151 6.95323 -12.8211
17 2 2 -12.655 7.23896 -13.1197
9 1 2 -25.5681 -9.18968 22.6236
3 1 3 -24.8067 -8.63921 22.229
2 1 1 -25.0342 -7.35306 22.6691
8 1 2 -24.0511 -6.80187 22.604
7 1 2 -25.3853 -7.28135 23.7116
6 1 2 -25.8953 -6.57356 20.8059
1 1 1 -26.1015 -6.61184 21.8874
5 1 2 -26.0119 -5.58769 22.2715
4 1 2 26.6431 -6.89648 22.1833
ITEM: TIMESTEP
41600
ITEM: NUMBER OF ATOMS
38
ITEM: BOX BOUNDS pp pp pp
-2.6905500000000000e+01 2.6905500000000000e+01
-2.6905500000000000e+01 2.6905500000000000e+01
-2.6905500000000000e+01 2.6905500000000000e+01
ITEM: ATOMS id mol type x y z
27 3 2 -20.9016 1.04699 -19.1402
25 3 2 -21.49 -0.0259454 -17.3848
20 3 1 -20.4773 0.300869 -17.4582
26 3 2 -19.8737 -0.626839 -17.8553
23 3 2 -19.9871 -0.245192 -15.4139
21 3 3 -20.3545 1.34618 -18.3745
28 3 2 -21.4305 1.78066 -15.8208
22 3 3 -20.4726 1.73493 -15.6221
24 3 2 -18.8111 0.849041 -16.245
19 3 1 -19.9024 0.629263 -16.1219
16 2 2 -14.0602 6.33593 -13.0359
12 2 3 -14.0234 8.34762 -13.7219
18 2 2 -14.9446 8.52657 -13.4706
36 4 2 0.624694 -12.3824 -7.97492
31 4 3 2.65718 -11.9432 -7.80229
30 4 1 1.54071 -12.3379 -8.67254
35 4 2 1.67469 -13.3933 -9.13744
33 4 2 0.287219 -11.5176 -10.2716
34 4 2 1.00675 -10.2845 -9.10203
29 4 1 1.20672 -11.2587 -9.68556
32 4 3 2.36813 -11.0468 -10.4764
38 4 2 2.70764 -11.9387 -10.7008
37 4 2 2.87445 -12.6471 -7.07466
13 2 2 -14.8838 7.89125 -11.1913
14 2 2 -13.4501 6.80426 -10.7698
15 2 2 -13.2904 8.59015 -11.0832
10 2 1 -13.8432 7.67342 -11.376
11 2 1 -13.5778 7.30357 -12.8749
17 2 2 -12.4949 7.188 -12.9453
9 1 2 -25.4352 -8.80283 21.8382
3 1 3 -24.7352 -8.18206 22.1806
2 1 1 -25.4731 -7.1173 22.8431
8 1 2 -24.7137 -6.42826 23.2059
7 1 2 -26.0115 -7.58773 23.6786
6 1 2 -25.8358 -5.96895 21.0307
1 1 1 -26.4389 -6.3687 21.9233
5 1 2 -26.8922 -5.48094 22.4792
4 1 2 26.4679 -6.99105 21.5616
ITEM: TIMESTEP
41800
ITEM: NUMBER OF ATOMS
38
ITEM: BOX BOUNDS pp pp pp
-2.6905500000000000e+01 2.6905500000000000e+01
-2.6905500000000000e+01 2.6905500000000000e+01
-2.6905500000000000e+01 2.6905500000000000e+01
ITEM: ATOMS id mol type x y z
27 3 2 -21.0296 0.876969 -19.4447
25 3 2 -21.3819 -0.370782 -17.4951
20 3 1 -20.4283 0.124498 -17.7581
26 3 2 -19.8036 -0.649034 -18.2401
23 3 2 -19.3432 -0.260942 -15.9497
21 3 3 -20.7308 1.22059 -18.5631
28 3 2 -21.2884 1.19052 -15.678
22 3 3 -20.4371 1.56339 -15.9022
24 3 2 -18.6256 1.17194 -16.9076
19 3 1 -19.6231 0.612273 -16.5828
16 2 2 -14.6152 6.49376 -13.2061
12 2 3 -13.3575 8.09957 -13.6964
18 2 2 -14.1393 8.77917 -13.6246
36 4 2 0.950265 -11.8628 -7.54344
31 4 3 3.03989 -12.3019 -7.57879
30 4 1 1.79774 -12.2042 -8.24723
35 4 2 1.60897 -13.2627 -8.68697
33 4 2 0.910726 -10.9912 -9.82225
34 4 2 2.28054 -10.207 -8.99604
29 4 1 1.90759 -11.1359 -9.3645
32 4 3 2.8139 -11.4062 -10.3723
38 4 2 2.68527 -12.2968 -10.781
37 4 2 2.93847 -12.9887 -6.97463
13 2 2 -14.6919 8.29786 -11.3461
14 2 2 -14.058 6.76096 -10.5885
15 2 2 -12.8973 8.06442 -11.1281
10 2 1 -13.808 7.57603 -11.3732
11 2 1 -13.6431 7.01429 -12.8668
17 2 2 -12.82 6.29708 -12.7746
9 1 2 -25.3763 -8.30388 21.5504
3 1 3 -24.7555 -7.92546 22.2608
2 1 1 -25.5687 -7.15653 23.0491
8 1 2 -24.9026 -6.70382 23.8024
7 1 2 -26.2343 -7.75949 23.6011
6 1 2 -25.4544 -5.48583 21.8709
1 1 1 -26.23 -6.11631 22.304
5 1 2 26.8819 -5.53843 22.884
4 1 2 26.9205 -6.56748 21.5066
ITEM: TIMESTEP
42000
ITEM: NUMBER OF ATOMS
38
ITEM: BOX BOUNDS pp pp pp
-2.6905500000000000e+01 2.6905500000000000e+01
-2.6905500000000000e+01 2.6905500000000000e+01
-2.6905500000000000e+01 2.6905500000000000e+01
ITEM: ATOMS id mol type x y z
27 3 2 -21.2363 0.818813 -19.3207
25 3 2 -21.5678 -0.645334 -17.557
20 3 1 -20.6176 -0.140231 -17.6938
26 3 2 -19.8135 -0.72819 -18.2542
23 3 2 -19.7621 -0.772451 -15.8849
21 3 3 -20.8298 1.09163 -18.4085
28 3 2 -21.5529 0.833984 -15.2844
22 3 3 -20.6597 1.18211 -15.554
24 3 2 -19.1199 0.787294 -16.6426
19 3 1 -20.0128 0.183255 -16.3833
16 2 2 -14.9495 6.91166 -13.1046
12 2 3 -13.4517 8.26623 -13.7897
18 2 2 -13.995 9.12175 -13.8255
36 4 2 1.11409 -11.6402 -7.69682
31 4 3 3.02356 -12.5022 -7.84404
30 4 1 1.82388 -11.9947 -8.48993
35 4 2 1.33427 -12.7739 -9.10449
33 4 2 1.38298 -10.2951 -9.84726
34 4 2 2.85663 -10.0595 -8.89488
29 4 1 2.23476 -10.8345 -9.41993
32 4 3 3.04232 -11.4121 -10.4349
38 4 2 2.43502 -11.8197 -11.0895
37 4 2 2.86265 -13.3557 -7.33192
13 2 2 -14.4474 8.97682 -11.4325
14 2 2 -14.1574 7.26868 -10.7633
15 2 2 -12.7541 8.22842 -11.341
10 2 1 -13.8835 8.02506 -11.4967
11 2 1 -13.9902 7.33592 -12.874
17 2 2 -13.3552 6.41687 -12.881
9 1 2 -25.7956 -8.73607 22.1577
3 1 3 -25.2609 -8.10542 22.7498
2 1 1 -26.1333 -7.01826 22.9625
8 1 2 -25.6791 -6.32194 23.7503
7 1 2 -27.0588 -7.45301 23.4055
6 1 2 -25.4377 -5.90916 21.2138
1 1 1 -26.3713 -6.27532 21.6414
5 1 2 26.7259 -5.43157 21.8561
4 1 2 27.0536 -6.94804 20.934
ITEM: TIMESTEP
42200
ITEM: NUMBER OF ATOMS
38
ITEM: BOX BOUNDS pp pp pp
-2.6905500000000000e+01 2.6905500000000000e+01
-2.6905500000000000e+01 2.6905500000000000e+01
-2.6905500000000000e+01 2.6905500000000000e+01
ITEM: ATOMS id mol type x y z
25 3 2 -21.9708 -0.113706 -17.4706
20 3 1 -20.9225 0.10801 -17.5759
26 3 2 -20.4596 -0.625608 -18.3182
23 3 2 -19.9998 -0.892084 -16.0201
27 3 2 -21.4203 1.20752 -19.0538
21 3 3 -20.8715 1.31775 -18.2756
28 3 2 -21.637 0.517161 -15.165
22 3 3 -20.7209 0.934848 -15.3071
24 3 2 -19.0572 0.49304 -16.5807
19 3 1 -20.1103 0.153918 -16.3025
12 2 3 -13.1375 8.37967 -13.7239
18 2 2 -13.3519 9.34313 -13.5705
36 4 2 1.40096 -11.5353 -7.60607
31 4 3 3.13352 -12.4459 -8.05547
30 4 1 1.95822 -11.9075 -8.47416
35 4 2 1.33958 -12.7184 -8.951
33 4 2 1.17546 -10.4823 -9.7938
34 4 2 2.78564 -9.98998 -9.17186
29 4 1 2.14568 -10.8427 -9.52453
32 4 3 2.92578 -11.3421 -10.6113
38 4 2 2.26957 -11.9979 -11.0675
37 4 2 2.88023 -13.3727 -7.73618
17 2 2 -13.8355 6.48538 -13.0761
16 2 2 -15.0196 7.78014 -13.2778
13 2 2 -14.1537 9.17842 -11.2256
14 2 2 -14.6474 7.33659 -10.9929
10 2 1 -13.9438 8.04503 -11.4771
11 2 1 -13.9879 7.63405 -12.9578
15 2 2 -12.8408 7.81929 -11.1625
9 1 2 -25.66 -9.07353 22.1363
3 1 3 -25.4848 -8.38919 22.8764
2 1 1 -26.4865 -7.46857 22.9206
4 1 2 -26.6445 -6.95644 20.8177
7 1 2 26.3482 -8.00863 22.9234
8 1 2 -26.2731 -6.88591 23.8883
6 1 2 -25.518 -5.94515 21.6986
1 1 1 -26.4785 -6.44313 21.7683
5 1 2 -27.2617 -5.68876 21.9141
ITEM: TIMESTEP
42400
ITEM: NUMBER OF ATOMS
38
ITEM: BOX BOUNDS pp pp pp
-2.6905500000000000e+01 2.6905500000000000e+01
-2.6905500000000000e+01 2.6905500000000000e+01
-2.6905500000000000e+01 2.6905500000000000e+01
ITEM: ATOMS id mol type x y z
25 3 2 -22.2002 0.0487611 -17.1544
20 3 1 -21.1324 0.0804712 -17.5422
26 3 2 -20.8521 -0.775444 -18.1873
23 3 2 -20.5334 -0.822201 -15.7211
27 3 2 -21.3955 1.41736 -19.0698
21 3 3 -20.86 1.2677 -18.2387
28 3 2 -21.4722 1.25527 -15.3062
22 3 3 -20.4929 1.24764 -15.5608
24 3 2 -19.1483 0.143077 -16.6114
19 3 1 -20.2407 0.081628 -16.3177
12 2 3 -13.467 8.53698 -14.204
18 2 2 -13.682 9.43041 -13.883
36 4 2 1.21899 -11.0743 -7.70689
31 4 3 3.06508 -12.2186 -7.7659
30 4 1 1.78659 -11.8238 -8.30201
35 4 2 1.16131 -12.738 -8.51889
33 4 2 1.11445 -10.6218 -10.031
34 4 2 2.69765 -10.1223 -9.39775
29 4 1 2.0764 -11.039 -9.66293
32 4 3 2.71971 -11.7911 -10.6363
38 4 2 2.22012 -12.634 -10.8184
37 4 2 3.01276 -12.5041 -6.79817
17 2 2 -13.8808 6.5144 -13.5304
16 2 2 -15.2897 7.63526 -13.5587
13 2 2 -14.4656 8.83645 -11.6184
14 2 2 -14.5804 7.05852 -11.2832
10 2 1 -14.0316 7.85711 -11.8323
11 2 1 -14.2121 7.58648 -13.3188
15 2 2 -12.9375 7.86593 -11.5642
9 1 2 -25.2519 -9.09527 22.1509
3 1 3 -25.2763 -8.47687 22.9623
2 1 1 -26.2551 -7.4589 22.9627
4 1 2 -25.9 -6.99529 20.9043
7 1 2 26.5376 -7.91917 22.9304
8 1 2 -26.1507 -6.96121 23.935
6 1 2 -25.0643 -5.90467 22.0421
1 1 1 -26.0051 -6.45188 21.8652
5 1 2 26.9642 -5.73636 21.9226
ITEM: TIMESTEP
42600
ITEM: NUMBER OF ATOMS
38
ITEM: BOX BOUNDS pp pp pp
-2.6905500000000000e+01 2.6905500000000000e+01
-2.6905500000000000e+01 2.6905500000000000e+01
-2.6905500000000000e+01 2.6905500000000000e+01
ITEM: ATOMS id mol type x y z
25 3 2 -22.3049 -0.059622 -16.5949
20 3 1 -21.3076 -0.0491221 -17.0978
26 3 2 -21.1268 -0.99509 -17.6344
23 3 2 -20.1048 -0.655172 -15.3087
27 3 2 -22.0202 0.75414 -18.7707
21 3 3 -21.3429 0.95878 -18.0354
28 3 2 -21.1739 1.35395 -14.8752
22 3 3 -20.3758 1.36724 -15.4099
24 3 2 -19.2909 0.140768 -16.5269
19 3 1 -20.2425 0.126697 -16.0089
12 2 3 -13.8283 8.45101 -13.8538
18 2 2 -13.5561 9.35417 -13.4773
36 4 2 1.63409 -11.3648 -7.38982
31 4 3 3.42835 -12.1598 -7.90297
30 4 1 2.12788 -11.9208 -8.25687
35 4 2 1.66923 -12.9215 -8.44292
33 4 2 0.989687 -10.6282 -9.63678
34 4 2 2.54773 -10.0005 -9.15814
29 4 1 2.05871 -10.923 -9.43222
32 4 3 2.67047 -11.2917 -10.6129
38 4 2 2.18002 -12.1078 -10.8957
37 4 2 3.47035 -12.5977 -7.06833
17 2 2 -14.4681 6.66485 -13.1062
16 2 2 -15.3971 8.00988 -12.6131
13 2 2 -13.4759 8.72787 -11.1425
14 2 2 -13.9414 7.03579 -10.8284
10 2 1 -13.4401 7.65301 -11.5624
11 2 1 -14.3192 7.7164 -12.7966
15 2 2 -12.3881 7.27278 -11.6079
9 1 2 -25.289 -9.09782 22.2087
3 1 3 -25.2355 -8.71978 23.1619
2 1 1 -26.2878 -7.84631 23.3302
4 1 2 -26.5415 -7.14963 21.4427
7 1 2 26.6244 -8.42997 23.245
8 1 2 -26.2103 -7.49311 24.3633
6 1 2 -25.3039 -6.24949 22.2329
1 1 1 -26.3059 -6.70573 22.3839
5 1 2 26.73 -5.88645 22.659
ITEM: TIMESTEP
42800
ITEM: NUMBER OF ATOMS
38
ITEM: BOX BOUNDS pp pp pp
-2.6905500000000000e+01 2.6905500000000000e+01
-2.6905500000000000e+01 2.6905500000000000e+01
-2.6905500000000000e+01 2.6905500000000000e+01
ITEM: ATOMS id mol type x y z
25 3 2 -21.7902 -0.524001 -16.6955
20 3 1 -20.9147 0.000463691 -17.1992
26 3 2 -20.6033 -0.621412 -18.0419
23 3 2 -19.4682 -0.78699 -15.669
27 3 2 -22.0658 1.15698 -18.2771
21 3 3 -21.2821 1.20443 -17.7673
28 3 2 -20.9222 0.735825 -14.6311
22 3 3 -20.143 1.10299 -15.1863
24 3 2 -18.8379 0.556046 -16.6154
19 3 1 -19.7936 0.184288 -16.175
12 2 3 -13.8604 8.01493 -13.6858
18 2 2 -13.7791 9.03508 -13.7011
36 4 2 1.51805 -11.784 -7.40235
31 4 3 3.50141 -12.1934 -8.19851
30 4 1 2.06406 -12.009 -8.35485
35 4 2 1.76874 -12.9719 -8.7227
33 4 2 0.809353 -10.8845 -9.72379
34 4 2 2.20988 -10.0158 -9.14933
29 4 1 1.89016 -10.9691 -9.45742
32 4 3 2.53019 -11.3846 -10.6284
38 4 2 2.01136 -12.1842 -11.0431
37 4 2 3.72876 -12.9763 -7.59685
17 2 2 -14.9021 6.54781 -12.8275
16 2 2 -15.3756 8.14196 -12.2339
13 2 2 -13.1401 8.1621 -10.9283
14 2 2 -14.268 6.68721 -10.643
10 2 1 -13.6197 7.24253 -11.3677
11 2 1 -14.526 7.50691 -12.5564
15 2 2 -12.763 6.62601 -11.7137
9 1 2 -25.7064 -9.06827 22.079
3 1 3 -25.255 -8.71038 22.9489
2 1 1 -26.1333 -7.75597 23.4566
4 1 2 -26.7761 -6.97101 21.5975
7 1 2 26.7629 -8.39697 23.7057
8 1 2 -25.7481 -7.38964 24.414
6 1 2 -25.356 -6.14233 22.1803
1 1 1 -26.3505 -6.62041 22.5096
5 1 2 26.7928 -5.76007 22.9576
ITEM: TIMESTEP
43000
ITEM: NUMBER OF ATOMS
38
ITEM: BOX BOUNDS pp pp pp
-2.6905500000000000e+01 2.6905500000000000e+01
-2.6905500000000000e+01 2.6905500000000000e+01
-2.6905500000000000e+01 2.6905500000000000e+01
ITEM: ATOMS id mol type x y z
25 3 2 -22.1771 0.0114414 -16.5745
20 3 1 -21.1455 -0.176909 -17.0243
26 3 2 -21.227 -1.14691 -17.4039
23 3 2 -19.9627 -0.734056 -15.2154
27 3 2 -21.4261 0.466575 -18.8108
21 3 3 -20.8914 0.69194 -18.0661
28 3 2 -20.7034 1.31247 -14.9723
22 3 3 -19.8422 1.22495 -15.5079
24 3 2 -19.0148 -0.253893 -16.6798
19 3 1 -19.9718 -0.029063 -16.0305
12 2 3 -13.9151 7.93314 -13.538
18 2 2 -14.043 8.78075 -13.0947
36 4 2 1.59298 -11.3444 -7.36539
31 4 3 3.41026 -11.9822 -8.20365
30 4 1 2.02447 -11.9371 -8.27064
35 4 2 1.68771 -13.0483 -8.30563
33 4 2 0.48741 -11.154 -9.69234
34 4 2 1.98648 -10.0039 -9.33367
29 4 1 1.63597 -11.1279 -9.51975
32 4 3 2.19087 -11.6398 -10.6791
38 4 2 1.66193 -12.4743 -10.9525
37 4 2 3.61271 -12.315 -7.32649
17 2 2 -14.5878 6.07931 -13.3759
16 2 2 -15.6898 7.24967 -12.5898
13 2 2 -13.925 7.73585 -10.8301
14 2 2 -14.4606 5.97794 -10.8646
10 2 1 -13.9577 6.75575 -11.4093
11 2 1 -14.597 6.99962 -12.7995
15 2 2 -12.8943 6.40638 -11.5949
9 1 2 -25.9503 -9.03916 21.8887
3 1 3 -25.3134 -8.66636 22.6341
2 1 1 -26.0677 -7.6721 23.2994
4 1 2 -27.0269 -7.07908 21.3775
7 1 2 26.8011 -8.0995 23.7247
8 1 2 -25.5459 -7.10031 24.0344
6 1 2 -25.5598 -6.18582 21.7309
1 1 1 -26.4568 -6.60651 22.2624
5 1 2 26.7281 -5.83918 22.8028
ITEM: TIMESTEP
43200
ITEM: NUMBER OF ATOMS
38
ITEM: BOX BOUNDS pp pp pp
-2.6905500000000000e+01 2.6905500000000000e+01
-2.6905500000000000e+01 2.6905500000000000e+01
-2.6905500000000000e+01 2.6905500000000000e+01
ITEM: ATOMS id mol type x y z
25 3 2 -21.5428 -0.721896 -16.4209
20 3 1 -20.8082 -0.218478 -17.0391
26 3 2 -20.3653 -1.03304 -17.6476
23 3 2 -19.3734 -0.747726 -15.4537
27 3 2 -21.9841 0.522087 -18.5603
21 3 3 -21.3108 0.899037 -17.851
28 3 2 -21.096 0.884167 -14.8317
22 3 3 -20.2706 1.17523 -15.2384
24 3 2 -18.8171 0.510065 -16.6404
19 3 1 -19.7623 0.112458 -16.0611
12 2 3 -14.3582 7.54761 -13.8593
18 2 2 -14.4329 8.51089 -13.4824
36 4 2 2.04627 -10.6089 -7.68827
31 4 3 3.39058 -11.8001 -8.56883
30 4 1 2.05112 -11.4818 -8.36074
35 4 2 1.5063 -12.3376 -7.89071
33 4 2 0.410426 -10.7319 -9.55156
34 4 2 2.0374 -10.2315 -10.1451
29 4 1 1.4549 -11.091 -9.69623
32 4 3 1.53367 -12.1526 -10.6589
38 4 2 0.8533 -12.7771 -10.4003
37 4 2 3.78359 -12.1213 -7.67169
17 2 2 -14.6907 5.70734 -13.2418
14 2 2 -13.9517 6.04627 -10.8875
15 2 2 -12.6644 6.70527 -11.9938
16 2 2 -15.6808 7.00263 -12.4582
13 2 2 -13.7024 7.8878 -11.2604
10 2 1 -13.6941 6.83746 -11.6659
11 2 1 -14.6404 6.73714 -12.8009
9 1 2 -25.4869 -9.16735 22.1561
3 1 3 -25.0563 -8.66576 22.8841
2 1 1 -26.0546 -7.85467 23.3851
7 1 2 -27.0131 -8.34556 23.7142
8 1 2 -25.674 -7.36232 24.2682
4 1 2 27.0662 -7.12363 21.446
6 1 2 -25.5178 -6.16571 22.3017
1 1 1 -26.4163 -6.74169 22.411
5 1 2 26.6485 -5.99859 22.8138
ITEM: TIMESTEP
43400
ITEM: NUMBER OF ATOMS
38
ITEM: BOX BOUNDS pp pp pp
-2.6905500000000000e+01 2.6905500000000000e+01
-2.6905500000000000e+01 2.6905500000000000e+01
-2.6905500000000000e+01 2.6905500000000000e+01
ITEM: ATOMS id mol type x y z
25 3 2 -21.9723 -0.651319 -16.7845
20 3 1 -21.0596 -0.15516 -17.1673
26 3 2 -20.4685 -0.89906 -17.8238
23 3 2 -19.7266 -0.550269 -15.6282
27 3 2 -22.1467 0.538137 -18.683
21 3 3 -21.4721 0.968119 -17.9664
28 3 2 -21.4042 0.766314 -14.6908
22 3 3 -20.7457 1.26216 -15.1109
24 3 2 -19.2587 0.958213 -16.5524
19 3 1 -20.0759 0.385622 -16.0425
12 2 3 -14.4685 7.83687 -13.6141
18 2 2 -14.7668 8.65767 -13.2062
36 4 2 1.87092 -10.7629 -7.32034
31 4 3 3.31686 -12.0106 -8.20245
30 4 1 1.95867 -11.6511 -8.05701
35 4 2 1.38067 -12.6004 -7.80301
33 4 2 0.327338 -10.7145 -9.21793
34 4 2 1.9754 -10.2702 -9.67306
29 4 1 1.36568 -11.1491 -9.39759
32 4 3 1.34671 -12.0681 -10.4387
38 4 2 0.828872 -12.8475 -10.0937
37 4 2 3.63817 -12.1932 -7.22605
17 2 2 -14.944 5.73281 -13.5235
14 2 2 -14.6349 5.65121 -10.9648
15 2 2 -13.1852 6.35461 -11.6691
16 2 2 -16.0556 6.85366 -12.833
13 2 2 -14.4953 7.45784 -10.9776
10 2 1 -14.3173 6.52737 -11.546
11 2 1 -15.0512 6.74403 -12.9315
9 1 2 -25.8618 -8.96191 21.5256
3 1 3 -25.2908 -8.73509 22.2882
2 1 1 -26.1908 -8.10715 23.1935
7 1 2 26.775 -8.77283 23.4113
8 1 2 -25.5774 -7.99937 24.1229
4 1 2 -27.2248 -6.80458 21.9075
6 1 2 -25.8316 -5.991 22.6632
1 1 1 -26.6956 -6.72313 22.779
5 1 2 26.3427 -6.31515 23.4991
ITEM: TIMESTEP
43600
ITEM: NUMBER OF ATOMS
38
ITEM: BOX BOUNDS pp pp pp
-2.6905500000000000e+01 2.6905500000000000e+01
-2.6905500000000000e+01 2.6905500000000000e+01
-2.6905500000000000e+01 2.6905500000000000e+01
ITEM: ATOMS id mol type x y z
25 3 2 -22.3089 -0.657791 -16.5649
20 3 1 -21.4717 -0.373887 -17.2284
26 3 2 -21.2897 -1.08853 -18.041
23 3 2 -20.0396 -1.42114 -15.8685
27 3 2 -22.404 1.00158 -18.3445
21 3 3 -21.6018 1.01903 -17.7485
28 3 2 -21.0049 0.396843 -14.6706
22 3 3 -20.2914 0.662641 -15.2834
24 3 2 -19.3587 -0.0477867 -16.9926
19 3 1 -20.2506 -0.366335 -16.3322
12 2 3 -13.9992 7.54975 -13.5453
18 2 2 -14.0617 8.30568 -12.9642
36 4 2 1.94993 -10.9134 -7.51777
31 4 3 3.2492 -12.2291 -8.23915
30 4 1 1.88612 -11.7819 -8.20961
35 4 2 1.24614 -12.5303 -7.70822
33 4 2 0.359648 -11.0305 -9.47466
34 4 2 2.00871 -10.6382 -10.0739
29 4 1 1.38102 -11.4264 -9.60654
32 4 3 1.37147 -12.5698 -10.437
38 4 2 0.847112 -13.1893 -9.8763
37 4 2 3.45416 -12.3759 -7.23992
17 2 2 -14.8345 5.5497 -13.5979
14 2 2 -15.3243 5.61359 -11.1321
15 2 2 -13.6574 5.80491 -11.4808
16 2 2 -15.9706 6.87044 -13.068
13 2 2 -14.6032 7.2342 -11.0235
10 2 1 -14.6216 6.28712 -11.556
11 2 1 -14.8914 6.5215 -13.0499
9 1 2 -26.043 -8.88336 21.7074
3 1 3 -25.269 -8.734 22.3082
2 1 1 -25.7799 -7.8276 23.2879
7 1 2 27.3053 -8.29996 23.907
8 1 2 -24.8971 -7.42877 23.8547
4 1 2 26.5092 -6.84787 22.0894
6 1 2 -25.7287 -5.90347 22.0761
1 1 1 -26.4031 -6.57354 22.694
5 1 2 27.0998 -5.92352 23.5443
ITEM: TIMESTEP
43800
ITEM: NUMBER OF ATOMS
38
ITEM: BOX BOUNDS pp pp pp
-2.6905500000000000e+01 2.6905500000000000e+01
-2.6905500000000000e+01 2.6905500000000000e+01
-2.6905500000000000e+01 2.6905500000000000e+01
ITEM: ATOMS id mol type x y z
25 3 2 -22.1718 -0.822179 -16.5698
20 3 1 -21.3836 -0.433412 -17.2728
26 3 2 -21.4832 -1.02537 -18.2444
23 3 2 -19.7725 -1.65172 -16.3707
27 3 2 -22.4937 1.01532 -17.8504
21 3 3 -21.5764 0.900786 -17.5612
28 3 2 -20.5693 -0.0879458 -14.9157
22 3 3 -19.8964 0.201698 -15.5202
24 3 2 -19.1694 -0.231335 -17.3377
19 3 1 -19.99 -0.547623 -16.6341
12 2 3 -14.0075 7.58454 -13.6432
18 2 2 -13.7412 8.257 -12.9634
36 4 2 2.00392 -11.1337 -7.5626
31 4 3 3.53214 -12.1369 -8.46573
30 4 1 2.18836 -11.9114 -8.34179
35 4 2 1.72107 -12.8092 -7.95632
33 4 2 0.50791 -11.1004 -9.40142
34 4 2 2.05318 -10.5363 -10.0315
29 4 1 1.52456 -11.4649 -9.60039
32 4 3 1.50416 -12.4681 -10.5584
38 4 2 0.915876 -13.1904 -10.3295
37 4 2 3.80614 -12.3092 -7.60088
17 2 2 -15.4668 6.31804 -13.9013
14 2 2 -15.7066 5.79901 -11.3949
15 2 2 -13.9455 5.53021 -12.0307
16 2 2 -15.9545 7.7347 -12.9503
13 2 2 -14.2989 6.93818 -11.1471
10 2 1 -14.7605 6.23392 -11.822
11 2 1 -15.152 6.98605 -13.1134
9 1 2 -25.6131 -8.74969 21.9502
3 1 3 -25.0045 -8.54793 22.7677
2 1 1 -25.7305 -7.59136 23.5409
7 1 2 -26.69 -8.06686 23.7922
8 1 2 -25.1932 -7.49424 24.5072
4 1 2 -26.4249 -6.37439 21.9884
6 1 2 -25.0322 -5.60238 22.8949
1 1 1 -25.9419 -6.21108 22.9745
5 1 2 -26.6066 -5.58565 23.5936
ITEM: TIMESTEP
44000
ITEM: NUMBER OF ATOMS
38
ITEM: BOX BOUNDS pp pp pp
-2.6905500000000000e+01 2.6905500000000000e+01
-2.6905500000000000e+01 2.6905500000000000e+01
-2.6905500000000000e+01 2.6905500000000000e+01
ITEM: ATOMS id mol type x y z
25 3 2 -22.433 -0.509508 -16.4313
20 3 1 -21.6764 -0.255349 -17.194
26 3 2 -21.9058 -0.800983 -18.0891
23 3 2 -20.3892 -1.8363 -16.6037
27 3 2 -22.6152 1.32457 -17.6648
21 3 3 -21.701 1.08663 -17.5254
28 3 2 -20.3311 -0.200573 -14.8734
22 3 3 -19.7324 -0.0849305 -15.6508
24 3 2 -19.5949 -0.681002 -17.6119
19 3 1 -20.299 -0.757814 -16.7393
12 2 3 -13.8475 8.00935 -13.3452
18 2 2 -13.4616 8.53151 -12.5881
36 4 2 1.57582 -11.1252 -7.47231
31 4 3 3.1025 -12.1401 -8.43422
30 4 1 1.71699 -11.8277 -8.35964
35 4 2 1.12332 -12.7758 -8.16596
33 4 2 0.301451 -10.917 -9.58251
34 4 2 1.96281 -10.3989 -9.97101
29 4 1 1.35127 -11.2458 -9.71054
32 4 3 1.56454 -12.2204 -10.7153
38 4 2 1.01217 -12.992 -10.547
37 4 2 3.41036 -12.4808 -7.51482
17 2 2 -15.5709 7.0158 -13.8395
14 2 2 -16.2018 6.28608 -11.4974
15 2 2 -14.5568 5.94962 -11.9052
16 2 2 -15.8257 8.57599 -12.8683
13 2 2 -14.8303 7.39547 -10.8764
10 2 1 -15.2056 6.75926 -11.723
11 2 1 -15.1332 7.64902 -12.9912
9 1 2 -24.7782 -8.54361 21.8152
3 1 3 -24.6594 -8.63421 22.8071
2 1 1 -25.7906 -7.97758 23.3573
7 1 2 -26.6368 -8.64094 23.0926
8 1 2 -25.7482 -8.01259 24.472
4 1 2 -26.0346 -6.55525 21.793
6 1 2 -25.1988 -5.8896 23.2656
1 1 1 -26.0741 -6.49805 22.904
5 1 2 -26.9577 -6.06382 23.3055
ITEM: TIMESTEP
44200
ITEM: NUMBER OF ATOMS
38
ITEM: BOX BOUNDS pp pp pp
-2.6905500000000000e+01 2.6905500000000000e+01
-2.6905500000000000e+01 2.6905500000000000e+01
-2.6905500000000000e+01 2.6905500000000000e+01
ITEM: ATOMS id mol type x y z
25 3 2 -22.1414 -0.3576 -16.1404
20 3 1 -21.3912 -0.274184 -16.9309
26 3 2 -21.6498 -0.987865 -17.7367
23 3 2 -19.8655 -1.55161 -15.882
28 3 2 -20.464 0.383189 -14.7065
19 3 1 -19.9851 -0.527059 -16.3292
24 3 2 -19.2445 -0.596921 -17.1201
27 3 2 -22.3404 1.08777 -17.6753
21 3 3 -21.399 0.977907 -17.4951
22 3 3 -19.6726 0.424753 -15.3797
17 2 2 -15.9145 8.09735 -13.9141
36 4 2 1.23557 -11.1311 -7.60503
31 4 3 3.01378 -12.2102 -8.26811
30 4 1 1.58798 -11.8494 -8.41033
35 4 2 0.955583 -12.8362 -8.24707
33 4 2 0.200394 -10.9856 -9.88581
34 4 2 1.91333 -10.2797 -9.86866
29 4 1 1.30905 -11.1982 -9.75665
32 4 3 1.66142 -11.9563 -10.8463
38 4 2 1.06594 -12.7475 -10.7041
37 4 2 3.15112 -12.4783 -7.33487
14 2 2 -16.4104 6.88246 -11.8895
15 2 2 -15.1618 6.08854 -12.6788
12 2 3 -14.0169 8.37084 -13.4972
18 2 2 -13.4788 8.61643 -12.6746
16 2 2 -15.6538 9.04247 -12.3849
13 2 2 -14.7375 7.07601 -11.2745
10 2 1 -15.3938 6.96187 -12.1629
11 2 1 -15.3101 8.19171 -13.0477
9 1 2 -24.3344 -8.09869 21.8219
3 1 3 -24.4151 -8.1115 22.8624
2 1 1 -25.6324 -7.68313 23.2791
7 1 2 -26.3414 -8.42548 22.8942
8 1 2 -25.6977 -7.69998 24.4089
4 1 2 -25.8959 -6.08414 21.7505
6 1 2 -25.1788 -5.55625 23.2528
1 1 1 -25.9688 -6.24444 22.8977
5 1 2 26.9414 -5.81797 23.3669
ITEM: TIMESTEP
44400
ITEM: NUMBER OF ATOMS
38
ITEM: BOX BOUNDS pp pp pp
-2.6905500000000000e+01 2.6905500000000000e+01
-2.6905500000000000e+01 2.6905500000000000e+01
-2.6905500000000000e+01 2.6905500000000000e+01
ITEM: ATOMS id mol type x y z
25 3 2 -21.6472 0.467555 -15.8574
20 3 1 -20.9911 0.137844 -16.7717
26 3 2 -21.4901 -0.663363 -17.3322
23 3 2 -19.9407 -1.34946 -15.5368
28 3 2 -19.4209 0.643141 -14.7421
19 3 1 -19.6537 -0.492024 -16.1986
24 3 2 -19.006 -0.829131 -17.0371
27 3 2 -21.637 1.64268 -17.8862
21 3 3 -20.7049 1.3168 -17.5839
22 3 3 -18.8667 0.400361 -15.4752
17 2 2 -16.3583 8.24966 -13.4269
36 4 2 1.94961 -10.774 -7.66814
31 4 3 3.24335 -12.0847 -8.59565
30 4 1 1.91977 -11.605 -8.37421
35 4 2 1.31665 -12.4362 -7.90122
33 4 2 0.328912 -10.6151 -9.37858
34 4 2 1.87886 -10.3105 -10.0733
29 4 1 1.25505 -11.1472 -9.68687
32 4 3 1.13129 -12.2171 -10.6263
38 4 2 0.464868 -12.9034 -10.3171
37 4 2 3.59126 -12.3453 -7.71773
14 2 2 -16.0383 7.19795 -11.0465
15 2 2 -15.2088 6.32189 -12.4062
12 2 3 -14.2765 8.5626 -13.6908
18 2 2 -13.5643 8.79805 -13.1627
16 2 2 -15.5912 9.3997 -12.3512
13 2 2 -14.2712 7.38971 -11.2678
10 2 1 -15.222 7.28041 -11.8506
11 2 1 -15.4063 8.43097 -12.851
9 1 2 -24.3518 -7.55361 22.041
3 1 3 -24.6284 -7.80094 22.9276
2 1 1 -25.9719 -7.51264 23.1757
7 1 2 -26.683 -8.016 22.5373
8 1 2 -26.1344 -7.91839 24.2097
4 1 2 -26.0204 -5.64771 22.227
6 1 2 -25.6123 -5.57979 24.022
1 1 1 -26.249 -6.07316 23.2132
5 1 2 26.5267 -5.86194 23.505
ITEM: TIMESTEP
44600
ITEM: NUMBER OF ATOMS
38
ITEM: BOX BOUNDS pp pp pp
-2.6905500000000000e+01 2.6905500000000000e+01
-2.6905500000000000e+01 2.6905500000000000e+01
-2.6905500000000000e+01 2.6905500000000000e+01
ITEM: ATOMS id mol type x y z
25 3 2 -21.6852 0.375982 -15.6547
20 3 1 -20.9986 0.12505 -16.4931
26 3 2 -21.4857 -0.677589 -17.0037
23 3 2 -19.8503 -1.46501 -15.4792
28 3 2 -19.3841 0.604471 -14.4605
19 3 1 -19.6759 -0.553474 -16.0602
24 3 2 -19.1249 -0.756588 -16.9739
27 3 2 -21.5496 1.62389 -17.6131
21 3 3 -20.6492 1.22348 -17.3632
22 3 3 -18.8508 0.277004 -15.269
17 2 2 -16.5413 7.7137 -13.0881
36 4 2 2.69083 -10.406 -7.54344
31 4 3 3.64541 -11.8952 -8.72357
30 4 1 2.46672 -11.3297 -8.18737
35 4 2 1.94395 -12.1366 -7.55101
33 4 2 0.362159 -10.684 -8.80542
34 4 2 1.77254 -10.0263 -9.82736
29 4 1 1.38013 -10.916 -9.21249
32 4 3 1.15182 -11.8453 -10.2049
38 4 2 0.706139 -12.603 -9.6723
37 4 2 4.21614 -12.0302 -7.92185
14 2 2 -15.8577 7.09222 -10.7546
15 2 2 -14.6291 6.46294 -11.94
12 2 3 -14.8035 8.29797 -13.654
18 2 2 -13.9869 8.78544 -13.3784
16 2 2 -15.9287 9.20551 -12.1388
13 2 2 -14.1574 7.92056 -10.98
10 2 1 -15.0406 7.37367 -11.4973
11 2 1 -15.6701 8.22331 -12.581
9 1 2 -24.1135 -6.82984 22.4512
3 1 3 -24.5256 -7.35183 23.1705
2 1 1 -25.9874 -7.42474 22.8136
7 1 2 -26.1101 -7.89512 21.8364
8 1 2 -26.5141 -7.98313 23.5846
4 1 2 -26.1489 -5.36768 22.2164
6 1 2 -26.3442 -5.6206 23.9499
1 1 1 -26.6355 -6.04454 22.9637
5 1 2 26.0326 -6.04451 22.8741
ITEM: TIMESTEP
44800
ITEM: NUMBER OF ATOMS
38
ITEM: BOX BOUNDS pp pp pp
-2.6905500000000000e+01 2.6905500000000000e+01
-2.6905500000000000e+01 2.6905500000000000e+01
-2.6905500000000000e+01 2.6905500000000000e+01
ITEM: ATOMS id mol type x y z
25 3 2 -21.7448 -0.127416 -16.1572
20 3 1 -20.9616 -0.245051 -16.9672
26 3 2 -21.2897 -0.877178 -17.8242
23 3 2 -20.0869 -1.96484 -15.9956
28 3 2 -20.1775 -0.505817 -14.4872
19 3 1 -19.7761 -1.00143 -16.28
24 3 2 -18.8711 -1.04034 -17.0037
27 3 2 -21.3271 1.53274 -17.5645
21 3 3 -20.5785 1.02676 -17.3446
22 3 3 -19.4071 -0.335607 -15.1506
17 2 2 -16.198 7.50124 -13.4725
36 4 2 2.83443 -10.378 -7.79891
31 4 3 3.47492 -12.2448 -8.65121
30 4 1 2.43843 -11.3784 -8.19068
35 4 2 1.8844 -11.8543 -7.3256
33 4 2 0.582175 -10.4216 -9.07052
34 4 2 2.05843 -10.5122 -10.0848
29 4 1 1.41111 -11.0376 -9.3682
32 4 3 0.969982 -12.1789 -10.0038
38 4 2 0.434136 -12.7566 -9.29053
37 4 2 4.02046 -12.4946 -7.91668
14 2 2 -16.3595 7.10047 -10.9647
15 2 2 -14.7516 6.41145 -11.6908
12 2 3 -14.6103 8.70528 -13.364
18 2 2 -14.1397 9.24735 -12.7165
16 2 2 -16.4239 8.93608 -12.5647
13 2 2 -14.9148 8.02257 -10.7553
10 2 1 -15.4333 7.3619 -11.4878
11 2 1 -15.7402 8.14024 -12.7426
9 1 2 -24.1907 -6.77543 22.7489
3 1 3 -24.7132 -7.38363 23.3141
2 1 1 -26.053 -7.31647 22.8924
7 1 2 -26.1722 -7.76752 21.8763
8 1 2 -26.6002 -8.01296 23.5457
4 1 2 -25.9361 -5.22094 22.314
6 1 2 -26.6552 -5.41635 24.0708
1 1 1 -26.5866 -5.89211 22.9821
5 1 2 26.1627 -5.92326 22.6103
ITEM: TIMESTEP
45000
ITEM: NUMBER OF ATOMS
38
ITEM: BOX BOUNDS pp pp pp
-2.6905500000000000e+01 2.6905500000000000e+01
-2.6905500000000000e+01 2.6905500000000000e+01
-2.6905500000000000e+01 2.6905500000000000e+01
ITEM: ATOMS id mol type x y z
25 3 2 -21.5802 -0.534378 -15.7771
20 3 1 -20.8922 -0.501482 -16.5927
26 3 2 -21.4027 -1.00565 -17.5016
23 3 2 -19.7908 -2.24117 -15.9291
28 3 2 -19.6299 -0.354671 -14.3744
19 3 1 -19.5902 -1.17155 -16.1871
24 3 2 -18.7756 -1.20161 -16.9311
27 3 2 -21.4755 1.20101 -17.2442
21 3 3 -20.6458 0.799617 -16.8426
22 3 3 -18.9596 -0.439528 -15.0388
17 2 2 -16.3574 7.30923 -13.5349
36 4 2 2.87015 -10.3529 -8.13137
31 4 3 3.45103 -12.2314 -8.80372
30 4 1 2.45666 -11.3603 -8.42519
35 4 2 1.81405 -11.7274 -7.57763
33 4 2 0.732165 -10.2905 -9.15294
34 4 2 2.04295 -10.6172 -10.3466
29 4 1 1.47703 -11.0191 -9.54526
32 4 3 0.909909 -12.1667 -10.0205
38 4 2 0.293412 -12.6379 -9.28939
37 4 2 3.98837 -12.4946 -7.99822
14 2 2 -16.4965 6.91187 -11.0545
15 2 2 -14.9283 6.47113 -11.6573
12 2 3 -14.6396 8.43085 -13.3734
18 2 2 -14.3378 9.13643 -12.8087
16 2 2 -16.4827 8.87719 -12.543
13 2 2 -15.099 8.01888 -10.8577
10 2 1 -15.6065 7.31014 -11.5151
11 2 1 -15.8473 7.99519 -12.8289
9 1 2 -24.1271 -6.9492 23.1934
3 1 3 -24.7748 -7.60497 23.6527
2 1 1 -25.8869 -7.76379 22.9058
7 1 2 -25.7735 -8.15548 21.8133
8 1 2 -26.5329 -8.41277 23.4733
4 1 2 -25.666 -5.76114 22.1549
6 1 2 -26.6736 -5.8901 23.8077
1 1 1 -26.447 -6.32626 22.7429
5 1 2 26.4212 -6.37548 22.1063
ITEM: TIMESTEP
45200
ITEM: NUMBER OF ATOMS
38
ITEM: BOX BOUNDS pp pp pp
-2.6905500000000000e+01 2.6905500000000000e+01
-2.6905500000000000e+01 2.6905500000000000e+01
-2.6905500000000000e+01 2.6905500000000000e+01
ITEM: ATOMS id mol type x y z
25 3 2 -21.1048 -0.321323 -15.7747
20 3 1 -20.6351 -0.0874126 -16.6856
26 3 2 -21.1539 -0.624126 -17.5234
23 3 2 -19.35 -1.79059 -16.3417
28 3 2 -19.3156 -0.292154 -14.4522
19 3 1 -19.2856 -0.675076 -16.4196
24 3 2 -18.6321 -0.407903 -17.3516
22 3 3 -18.7636 -0.127574 -15.2213
27 3 2 -21.6215 1.46949 -17.1707
21 3 3 -20.6367 1.28211 -17.0913
12 2 3 -14.393 8.0634 -13.575
36 4 2 2.79363 -10.206 -8.43435
31 4 3 3.1766 -12.1986 -8.72993
30 4 1 2.23314 -11.1631 -8.53813
35 4 2 1.68688 -11.365 -7.57269
33 4 2 0.556893 -10.158 -9.46123
34 4 2 1.95013 -10.5634 -10.4964
29 4 1 1.26283 -10.9746 -9.67952
32 4 3 0.535232 -12.0618 -10.0851
38 4 2 -0.165224 -12.408 -9.42939
37 4 2 3.74529 -12.1404 -7.90505
14 2 2 -16.3238 6.46427 -11.4297
15 2 2 -14.8651 5.81406 -12.2763
17 2 2 -16.2893 7.33658 -13.5104
18 2 2 -13.7402 8.5254 -12.9618
16 2 2 -16.0493 8.70137 -12.3818
13 2 2 -14.7582 7.10363 -10.9112
10 2 1 -15.3006 6.74165 -11.7774
11 2 1 -15.5502 7.7736 -12.8439
9 1 2 -23.9422 -7.09779 22.9949
3 1 3 -24.6166 -7.71932 23.4537
2 1 1 -25.7661 -7.56148 22.7303
7 1 2 -25.5705 -7.90009 21.7467
8 1 2 -26.5586 -8.26242 23.0131
4 1 2 -25.6267 -5.45413 22.5402
6 1 2 -26.6631 -6.07504 23.9201
1 1 1 -26.3782 -6.20011 22.8498
5 1 2 26.5283 -6.06432 22.1641
ITEM: TIMESTEP
45400
ITEM: NUMBER OF ATOMS
38
ITEM: BOX BOUNDS pp pp pp
-2.6905500000000000e+01 2.6905500000000000e+01
-2.6905500000000000e+01 2.6905500000000000e+01
-2.6905500000000000e+01 2.6905500000000000e+01
ITEM: ATOMS id mol type x y z
25 3 2 -21.2726 0.27139 -15.5427
20 3 1 -20.7826 0.0681584 -16.4964
26 3 2 -21.4201 -0.547273 -17.1891
23 3 2 -19.81 -1.85141 -15.9914
28 3 2 -19.1349 -0.118173 -14.6124
19 3 1 -19.5202 -0.779294 -16.2807
24 3 2 -18.9963 -0.874583 -17.2339
22 3 3 -18.5838 -0.205071 -15.4228
27 3 2 -21.4128 1.67571 -17.4102
21 3 3 -20.5203 1.26063 -17.1501
12 2 3 -14.5608 7.8655 -13.8542
36 4 2 2.49937 -10.4928 -8.39243
31 4 3 3.11934 -12.3087 -8.98183
30 4 1 2.03516 -11.4702 -8.69079
35 4 2 1.36271 -11.8951 -7.865
33 4 2 0.271807 -10.4125 -9.65621
34 4 2 1.73315 -10.58 -10.6706
29 4 1 1.12624 -11.1155 -9.94822
32 4 3 0.604335 -12.3057 -10.5552
38 4 2 0.0251198 -12.7969 -9.90941
37 4 2 3.65212 -12.5148 -8.16401
14 2 2 -16.5051 6.43667 -11.3392
15 2 2 -15.1982 5.56122 -12.2827
17 2 2 -16.5733 7.18812 -13.5703
18 2 2 -13.9805 8.37731 -13.2417
16 2 2 -15.9472 8.55698 -12.5939
13 2 2 -14.7922 6.93739 -11.1618
10 2 1 -15.5399 6.5428 -11.8836
11 2 1 -15.6963 7.61073 -13.0224
9 1 2 -24.1612 -7.53374 23.0413
3 1 3 -25.0567 -7.88621 23.2819
2 1 1 -25.9462 -7.10132 22.4235
7 1 2 -25.5765 -7.14842 21.3825
8 1 2 -26.8738 -7.61882 22.5203
4 1 2 -24.8535 -5.21989 22.7458
6 1 2 -26.1909 -5.47454 23.8409
1 1 1 -25.8757 -5.60937 22.8291
5 1 2 -26.5685 -4.98147 22.2745
ITEM: TIMESTEP
45600
ITEM: NUMBER OF ATOMS
38
ITEM: BOX BOUNDS pp pp pp
-2.6905500000000000e+01 2.6905500000000000e+01
-2.6905500000000000e+01 2.6905500000000000e+01
-2.6905500000000000e+01 2.6905500000000000e+01
ITEM: ATOMS id mol type x y z
25 3 2 -21.456 0.245985 -15.4906
20 3 1 -20.9464 0.465346 -16.5075
26 3 2 -21.6741 0.212148 -17.3121
23 3 2 -20.097 -1.52663 -16.6943
28 3 2 -19.2515 -0.583349 -14.7202
19 3 1 -19.7481 -0.437484 -16.6787
24 3 2 -19.2449 -0.183953 -17.6479
22 3 3 -18.8645 -0.335439 -15.6267
27 3 2 -21.4734 2.34537 -16.4533
21 3 3 -20.6524 1.81691 -16.5234
12 2 3 -15.1125 7.8866 -13.3608
36 4 2 2.12024 -10.758 -7.99516
31 4 3 3.07611 -12.3339 -9.01987
30 4 1 1.94078 -11.6604 -8.67944
35 4 2 1.29522 -12.3784 -8.02162
33 4 2 0.123017 -10.8876 -9.41508
34 4 2 1.56063 -10.4382 -10.3974
29 4 1 1.05675 -11.2815 -9.86683
32 4 3 0.81414 -12.3282 -10.7541
38 4 2 0.289194 -13.0354 -10.2333
37 4 2 3.67222 -12.4524 -8.28357
14 2 2 -16.82 6.9516 -10.552
15 2 2 -16.3055 5.79248 -11.8472
17 2 2 -17.0049 8.03621 -12.851
18 2 2 -14.2037 7.94249 -12.9352
16 2 2 -15.8892 9.01673 -11.7392
13 2 2 -15.0718 6.83946 -10.9122
10 2 1 -16.1026 6.80703 -11.3341
11 2 1 -16.025 8.01815 -12.3042
9 1 2 -23.8541 -7.60956 22.8798
3 1 3 -24.8011 -7.81025 23.0264
2 1 1 -25.472 -6.77205 22.3178
7 1 2 -24.9003 -6.82831 21.3466
8 1 2 27.3644 -7.13439 22.1065
4 1 2 -24.5273 -4.97328 23.2449
6 1 2 -26.1665 -5.45192 23.9414
1 1 1 -25.5156 -5.35612 23.0173
5 1 2 -26.0728 -4.58446 22.3629
ITEM: TIMESTEP
45800
ITEM: NUMBER OF ATOMS
38
ITEM: BOX BOUNDS pp pp pp
-2.6905500000000000e+01 2.6905500000000000e+01
-2.6905500000000000e+01 2.6905500000000000e+01
-2.6905500000000000e+01 2.6905500000000000e+01
ITEM: ATOMS id mol type x y z
25 3 2 -21.2219 0.57045 -15.2638
20 3 1 -20.9833 0.414633 -16.3605
26 3 2 -21.9179 0.15754 -16.9312
23 3 2 -20.2623 -1.62804 -16.0972
28 3 2 -19.1189 -0.317149 -14.714
19 3 1 -19.8778 -0.680462 -16.4608
24 3 2 -19.4941 -0.802226 -17.5494
22 3 3 -18.7472 -0.373548 -15.6793
27 3 2 -21.1915 2.29405 -16.9208
21 3 3 -20.4835 1.6112 -16.9746
12 2 3 -15.1267 7.83705 -13.3819
36 4 2 2.48477 -10.9034 -7.64168
31 4 3 3.17073 -12.3783 -8.91678
30 4 1 2.13426 -11.7226 -8.28896
35 4 2 1.5909 -12.4565 -7.69766
33 4 2 0.390741 -10.5486 -8.64362
34 4 2 1.79997 -10.3848 -9.83348
29 4 1 1.17824 -11.0495 -9.26802
32 4 3 0.679881 -12.0502 -10.0809
38 4 2 -0.0379294 -12.5137 -9.64381
37 4 2 3.61507 -12.9366 -8.25606
14 2 2 -17.0827 7.35335 -10.6712
15 2 2 -16.6963 6.17247 -11.8504
17 2 2 -16.9184 8.48669 -12.8347
18 2 2 -14.2774 7.6181 -12.9916
16 2 2 -15.6726 8.97669 -11.7929
13 2 2 -15.354 6.77883 -10.8417
10 2 1 -16.3074 7.07449 -11.3412
11 2 1 -16.0103 8.1571 -12.346
9 1 2 -23.4095 -7.18448 23.1009
3 1 3 -24.3254 -7.49398 23.1117
2 1 1 -25.1531 -6.65036 22.3604
7 1 2 -24.7883 -6.4788 21.3315
8 1 2 -26.1669 -7.11178 22.3271
4 1 2 -24.3636 -4.73743 23.2544
6 1 2 -25.7734 -5.52194 24.0828
1 1 1 -25.2928 -5.35397 23.1354
5 1 2 -25.9926 -4.70997 22.6019
ITEM: TIMESTEP
46000
ITEM: NUMBER OF ATOMS
38
ITEM: BOX BOUNDS pp pp pp
-2.6905500000000000e+01 2.6905500000000000e+01
-2.6905500000000000e+01 2.6905500000000000e+01
-2.6905500000000000e+01 2.6905500000000000e+01
ITEM: ATOMS id mol type x y z
25 3 2 -20.9167 1.10332 -15.1485
20 3 1 -21.0381 0.697651 -16.1314
26 3 2 -22.1365 0.429581 -16.3223
23 3 2 -20.5861 -1.37037 -15.7595
28 3 2 -18.7511 0.0688204 -15.203
19 3 1 -20.1227 -0.55914 -16.3772
24 3 2 -20.3238 -0.795109 -17.4312
22 3 3 -18.7698 -0.359959 -16.0942
27 3 2 -21.3281 2.46289 -16.9818
21 3 3 -20.8067 1.61694 -17.1838
12 2 3 -15.0144 7.30326 -13.0814
36 4 2 2.45087 -11.9123 -7.30528
31 4 3 3.34287 -12.1677 -9.16346
30 4 1 2.14203 -12.2582 -8.28409
35 4 2 1.74874 -13.3189 -8.1661
33 4 2 0.136843 -11.2508 -8.3556
34 4 2 1.39803 -10.238 -9.09869
29 4 1 1.05153 -11.3243 -8.96844
32 4 3 0.709709 -11.8597 -10.1557
38 4 2 0.43879 -12.8045 -10.0278
37 4 2 3.916 -12.957 -8.77264
14 2 2 -17.4019 6.80548 -10.7614
15 2 2 -17.2777 5.91447 -12.378
17 2 2 -16.6703 8.40031 -12.6453
18 2 2 -14.4834 6.56356 -12.6572
16 2 2 -15.4992 8.23002 -11.3313
13 2 2 -16.0063 5.78141 -11.1158
10 2 1 -16.7399 6.44687 -11.6118
11 2 1 -15.978 7.68331 -12.1872
9 1 2 -23.3057 -7.10831 22.72
3 1 3 -24.2408 -7.44317 22.5915
2 1 1 -24.925 -6.42508 22.0289
7 1 2 -24.3847 -6.01558 21.1764
8 1 2 -25.8956 -6.74151 21.5887
4 1 2 -24.1879 -5.04811 23.4807
6 1 2 -25.9332 -5.53457 23.745
1 1 1 -25.1347 -5.24936 23.0225
5 1 2 -25.4448 -4.41502 22.4881
ITEM: TIMESTEP
46200
ITEM: NUMBER OF ATOMS
38
ITEM: BOX BOUNDS pp pp pp
-2.6905500000000000e+01 2.6905500000000000e+01
-2.6905500000000000e+01 2.6905500000000000e+01
-2.6905500000000000e+01 2.6905500000000000e+01
ITEM: ATOMS id mol type x y z
23 3 2 -20.4961 -1.53635 -15.5429
19 3 1 -20.1197 -0.654886 -16.0154
24 3 2 -19.9192 -1.01511 -17.0143
22 3 3 -18.8761 -0.176234 -15.5641
25 3 2 -21.3113 0.920438 -15.01
20 3 1 -21.1577 0.535832 -16.0568
26 3 2 -22.1744 0.252864 -16.3634
27 3 2 -21.4853 2.28039 -16.9719
21 3 3 -20.758 1.62603 -16.8319
28 3 2 -19.0629 0.0523392 -14.604
36 4 2 2.19739 -12.0204 -7.2055
31 4 3 3.56572 -12.3104 -8.73263
30 4 1 2.21682 -12.2813 -8.23886
35 4 2 1.84173 -13.3101 -8.35984
33 4 2 0.282943 -11.2634 -8.4847
34 4 2 1.64335 -10.2858 -9.09147
29 4 1 1.27804 -11.3354 -9.01238
32 4 3 1.11507 -11.7495 -10.3303
38 4 2 0.703981 -12.6327 -10.3427
37 4 2 4.03628 -13.0091 -8.21274
14 2 2 -17.5827 6.6377 -10.927
15 2 2 -16.8059 5.37253 -11.9038
18 2 2 -14.2827 6.77317 -12.1553
13 2 2 -15.8418 6.02765 -10.5174
10 2 1 -16.5971 6.25334 -11.2886
12 2 3 -14.9885 6.89067 -12.8655
17 2 2 -16.9288 7.60031 -12.8855
16 2 2 -15.8914 8.27805 -11.6118
11 2 1 -16.1088 7.34653 -12.1526
9 1 2 -23.7906 -7.70032 23.2155
3 1 3 -24.7143 -7.73749 22.9513
2 1 1 -24.9426 -6.54288 22.3282
7 1 2 -24.2678 -6.33657 21.4341
8 1 2 -26.0053 -6.49183 21.9379
4 1 2 -23.8813 -5.44246 23.884
6 1 2 -25.6212 -5.7943 24.197
1 1 1 -24.8829 -5.48678 23.4407
5 1 2 -25.2098 -4.51809 23.1085
ITEM: TIMESTEP
46400
ITEM: NUMBER OF ATOMS
38
ITEM: BOX BOUNDS pp pp pp
-2.6905500000000000e+01 2.6905500000000000e+01
-2.6905500000000000e+01 2.6905500000000000e+01
-2.6905500000000000e+01 2.6905500000000000e+01
ITEM: ATOMS id mol type x y z
23 3 2 -20.0279 -1.90034 -15.6217
19 3 1 -19.8307 -0.904499 -16.1702
24 3 2 -19.7046 -1.1364 -17.3364
22 3 3 -18.6303 -0.461084 -15.6353
25 3 2 -21.0938 0.151211 -14.8772
20 3 1 -21.0025 0.0139585 -15.9645
26 3 2 -21.9084 -0.440034 -16.4853
27 3 2 -21.4044 1.94616 -16.3911
21 3 3 -20.6654 1.29007 -16.5877
28 3 2 -18.8756 -0.190668 -14.7215
36 4 2 2.09638 -12.3998 -7.24898
31 4 3 3.35471 -12.8082 -8.92713
30 4 1 2.09617 -12.7014 -8.34899
35 4 2 1.47542 -13.5914 -8.55213
33 4 2 0.487989 -11.2022 -8.82371
34 4 2 2.15659 -10.5728 -8.92443
29 4 1 1.55299 -11.4423 -9.10856
32 4 3 1.60379 -11.7876 -10.4637
38 4 2 0.969781 -12.6035 -10.5523
37 4 2 3.7986 -13.585 -8.47655
14 2 2 -17.088 6.49897 -10.5377
15 2 2 -16.2257 5.34202 -11.5941
18 2 2 -13.8646 6.79126 -12.6018
13 2 2 -15.3854 6.35688 -10.4136
10 2 1 -16.175 6.35887 -11.1214
12 2 3 -14.7594 6.92379 -13.0365
17 2 2 -16.7129 7.41256 -12.8147
16 2 2 -15.6248 8.34879 -11.7416
11 2 1 -15.8296 7.38749 -12.2166
9 1 2 -23.6632 -8.10206 23.3274
3 1 3 -24.6529 -7.97757 23.1851
2 1 1 -24.8077 -6.69513 22.6768
7 1 2 -24.2169 -6.5225 21.7198
8 1 2 -25.8872 -6.58887 22.4764
4 1 2 -23.4213 -5.7373 23.8684
6 1 2 -24.9869 -5.71947 24.7433
1 1 1 -24.4528 -5.60991 23.748
5 1 2 -24.5972 -4.62376 23.2346
ITEM: TIMESTEP
46600
ITEM: NUMBER OF ATOMS
38
ITEM: BOX BOUNDS pp pp pp
-2.6905500000000000e+01 2.6905500000000000e+01
-2.6905500000000000e+01 2.6905500000000000e+01
-2.6905500000000000e+01 2.6905500000000000e+01
ITEM: ATOMS id mol type x y z
23 3 2 -20.3544 -1.96209 -15.3686
19 3 1 -20.0212 -1.06827 -15.8951
24 3 2 -20.069 -1.29902 -17.045
22 3 3 -18.6343 -0.756798 -15.5711
25 3 2 -20.881 0.456707 -14.4915
20 3 1 -20.946 0.171059 -15.5995
26 3 2 -22.0111 -0.062116 -15.9145
27 3 2 -21.1242 1.99467 -16.0227
21 3 3 -20.5642 1.23156 -16.3508
28 3 2 -18.4668 -0.513501 -14.5713
36 4 2 2.55869 -11.9879 -7.58461
31 4 3 3.10662 -13.1461 -9.1174
30 4 1 2.08345 -12.4519 -8.47304
35 4 2 1.30576 -13.162 -8.01167
33 4 2 0.739505 -10.8115 -8.75982
34 4 2 2.21233 -10.5433 -9.70133
29 4 1 1.48621 -11.3097 -9.38485
32 4 3 0.942942 -11.8057 -10.5556
38 4 2 0.160529 -12.2746 -10.2819
37 4 2 3.4244 -13.9118 -8.51544
14 2 2 -17.5318 7.08949 -11.3644
15 2 2 -16.574 5.70098 -11.9027
18 2 2 -14.0001 7.08487 -12.2178
13 2 2 -15.8795 6.60721 -10.5758
10 2 1 -16.4505 6.7056 -11.5472
12 2 3 -14.5106 7.27083 -13.016
17 2 2 -16.3939 7.86283 -13.3063
16 2 2 -15.6661 8.65944 -11.9224
11 2 1 -15.7564 7.66166 -12.4538
9 1 2 -23.4471 -7.39826 23.0689
3 1 3 -24.4924 -7.36198 22.9454
2 1 1 -24.9875 -6.06377 22.6458
7 1 2 -24.6804 -5.78241 21.6797
8 1 2 -26.1108 -6.10823 22.6946
4 1 2 -23.3272 -5.02544 23.5922
6 1 2 -24.7294 -5.42698 24.6927
1 1 1 -24.472 -5.04589 23.6547
5 1 2 -24.8185 -4.00394 23.5385
ITEM: TIMESTEP
46800
ITEM: NUMBER OF ATOMS
38
ITEM: BOX BOUNDS pp pp pp
-2.6905500000000000e+01 2.6905500000000000e+01
-2.6905500000000000e+01 2.6905500000000000e+01
-2.6905500000000000e+01 2.6905500000000000e+01
ITEM: ATOMS id mol type x y z
23 3 2 -20.4928 -2.17322 -15.3358
19 3 1 -20.172 -1.19049 -15.6792
24 3 2 -20.1351 -1.27853 -16.7839
22 3 3 -18.9312 -0.937459 -15.1845
25 3 2 -21.2719 -0.0971772 -14.2573
20 3 1 -21.1868 -0.0671778 -15.3131
26 3 2 -22.2108 -0.28453 -15.7508
27 3 2 -21.4082 1.91539 -15.3317
21 3 3 -20.7188 1.25526 -15.7051
28 3 2 -19.016 -0.863207 -14.2164
36 4 2 2.60904 -12.4988 -7.95871
31 4 3 3.16917 -13.1777 -9.79303
30 4 1 2.14112 -12.7788 -8.88358
35 4 2 1.45164 -13.6683 -8.74099
33 4 2 0.729273 -11.0936 -8.55488
34 4 2 2.24581 -10.6318 -9.42472
29 4 1 1.4607 -11.4463 -9.40103
32 4 3 0.827534 -11.4875 -10.67
38 4 2 0.227877 -12.2388 -10.63
37 4 2 3.65424 -13.8114 -9.32265
14 2 2 -17.6445 7.15623 -10.775
15 2 2 -16.9844 5.88275 -11.9077
18 2 2 -14.1572 7.12341 -12.0795
13 2 2 -16.0452 6.26034 -10.4736
10 2 1 -16.6934 6.752 -11.2797
12 2 3 -14.8186 7.22591 -12.8187
17 2 2 -16.6915 8.06008 -12.9929
16 2 2 -15.5965 8.69573 -11.7611
11 2 1 -15.946 7.74367 -12.2452
9 1 2 -23.3384 -7.11529 22.9638
3 1 3 -24.2818 -7.10811 22.8535
2 1 1 -24.6123 -5.82721 22.2916
7 1 2 -24.1124 -5.76158 21.3501
8 1 2 -25.71 -5.79556 22.1048
4 1 2 -23.295 -4.68885 23.5264
6 1 2 -24.9404 -4.80205 24.1927
1 1 1 -24.3511 -4.71025 23.2567
5 1 2 -24.6426 -3.75812 22.7925
ITEM: TIMESTEP
47000
ITEM: NUMBER OF ATOMS
38
ITEM: BOX BOUNDS pp pp pp
-2.6905500000000000e+01 2.6905500000000000e+01
-2.6905500000000000e+01 2.6905500000000000e+01
-2.6905500000000000e+01 2.6905500000000000e+01
ITEM: ATOMS id mol type x y z
23 3 2 -20.7616 -2.07362 -16.187
19 3 1 -20.1822 -1.07237 -15.9904
24 3 2 -19.5074 -0.838609 -16.8657
22 3 3 -19.309 -1.26204 -14.8665
25 3 2 -21.8332 -0.250237 -14.9157
20 3 1 -21.1792 0.0512438 -15.7214
26 3 2 -21.7297 0.218373 -16.6413
27 3 2 -21.2234 1.91365 -15.3732
21 3 3 -20.5054 1.24303 -15.428
28 3 2 -19.9374 -1.64175 -14.2087
36 4 2 2.95027 -12.2872 -7.83102
31 4 3 3.36454 -12.9391 -9.86948
30 4 1 2.44377 -12.5939 -8.79044
35 4 2 1.77487 -13.4086 -8.53158
33 4 2 0.870277 -11.1462 -8.30756
34 4 2 2.08043 -10.5745 -9.50665
29 4 1 1.49467 -11.4623 -9.22509
32 4 3 0.634106 -11.7554 -10.304
38 4 2 0.0656938 -12.4432 -9.9953
37 4 2 4.12807 -13.5703 -9.56844
14 2 2 -17.7535 7.39333 -10.7283
15 2 2 -16.8682 5.9161 -10.8597
18 2 2 -14.4118 7.31482 -11.9904
13 2 2 -16.1694 7.45368 -9.95667
10 2 1 -16.7203 7.04932 -10.8788
12 2 3 -15.0963 7.14325 -12.6711
17 2 2 -16.9816 7.35131 -13.0722
16 2 2 -16.2427 8.77614 -12.2022
11 2 1 -16.2925 7.67438 -12.2672
9 1 2 -22.9532 -7.29146 22.9658
3 1 3 -23.9701 -7.23884 22.7936
2 1 1 -24.2949 -5.99069 22.2924
7 1 2 -23.5526 -5.75966 21.4858
8 1 2 -25.314 -6.08339 21.893
4 1 2 -23.2664 -4.93363 24.0452
6 1 2 -24.9672 -5.31585 24.3267
1 1 1 -24.306 -4.99799 23.5063
5 1 2 -24.6789 -4.088 23.083
ITEM: TIMESTEP
47200
ITEM: NUMBER OF ATOMS
38
ITEM: BOX BOUNDS pp pp pp
-2.6905500000000000e+01 2.6905500000000000e+01
-2.6905500000000000e+01 2.6905500000000000e+01
-2.6905500000000000e+01 2.6905500000000000e+01
ITEM: ATOMS id mol type x y z
23 3 2 -20.0987 -1.67917 -16.7931
25 3 2 -22.1005 -0.367409 -15.84
19 3 1 -19.9976 -0.7695 -16.1554
24 3 2 -19.2139 -0.225065 -16.6885
22 3 3 -19.5245 -1.08581 -14.8326
28 3 2 -20.2697 -1.57969 -14.384
20 3 1 -21.2645 0.215068 -16.1895
26 3 2 -21.6278 0.53404 -17.2397
27 3 2 -21.8843 2.02369 -15.4399
21 3 3 -21.0527 1.37845 -15.4126
37 4 2 3.67978 -13.628 -9.64417
36 4 2 3.11355 -12.1407 -8.07196
31 4 3 3.09525 -12.8857 -9.96236
30 4 1 2.44776 -12.4936 -8.84443
35 4 2 1.89869 -13.3592 -8.44723
33 4 2 0.996669 -11.0501 -8.24706
34 4 2 2.07707 -10.4707 -9.70287
29 4 1 1.50733 -11.3481 -9.23316
32 4 3 0.440833 -11.7056 -10.1164
38 4 2 0.0359644 -12.5303 -9.70861
15 2 2 -16.3306 5.7123 -11.168
14 2 2 -17.5627 6.85979 -10.5186
18 2 2 -14.4322 7.91376 -11.8158
13 2 2 -15.8838 6.99585 -10.044
10 2 1 -16.5462 6.74868 -10.8931
12 2 3 -14.9863 7.61285 -12.5528
17 2 2 -17.0226 7.40161 -12.8817
16 2 2 -16.5205 8.57163 -11.7017
11 2 1 -16.26 7.61065 -12.0269
3 1 3 -23.3473 -6.94109 22.9227
8 1 2 -25.2852 -6.848 22.3153
9 1 2 -22.5166 -6.41741 22.9042
2 1 1 -24.3901 -6.19284 22.4188
7 1 2 -24.213 -5.91173 21.3646
4 1 2 -23.8606 -4.25208 23.3409
6 1 2 -25.0829 -5.21006 24.2571
1 1 1 -24.7442 -4.92273 23.2653
5 1 2 -25.5754 -4.36942 22.8161
ITEM: TIMESTEP
47400
ITEM: NUMBER OF ATOMS
38
ITEM: BOX BOUNDS pp pp pp
-2.6905500000000000e+01 2.6905500000000000e+01
-2.6905500000000000e+01 2.6905500000000000e+01
-2.6905500000000000e+01 2.6905500000000000e+01
ITEM: ATOMS id mol type x y z
23 3 2 -20.9015 -1.48724 -17.1847
25 3 2 -22.1682 0.266053 -16.0404
19 3 1 -20.3567 -0.797841 -16.5363
24 3 2 -19.4289 -0.618935 -17.0723
22 3 3 -20.1606 -1.45582 -15.2926
28 3 2 -21.1219 -1.69129 -14.9239
20 3 1 -21.1591 0.518153 -16.3853
26 3 2 -21.2039 1.03674 -17.3682
27 3 2 -20.9588 2.21688 -15.3541
21 3 3 -20.4943 1.34226 -15.4302
37 4 2 3.88824 -13.6744 -9.93988
36 4 2 3.29275 -12.438 -8.40371
31 4 3 3.2047 -13.0826 -10.2822
30 4 1 2.49284 -12.6912 -9.14841
35 4 2 1.90729 -13.5844 -8.8285
33 4 2 1.08097 -11.1518 -8.37355
34 4 2 2.17775 -10.6323 -9.62803
29 4 1 1.59128 -11.5194 -9.30967
32 4 3 0.575241 -11.7933 -10.3187
38 4 2 0.0437857 -12.6662 -10.1745
15 2 2 -16.238 5.79677 -10.8287
14 2 2 -17.2515 7.03474 -10.0232
18 2 2 -14.593 8.13359 -12.4517
13 2 2 -15.3267 7.31119 -10.1353
10 2 1 -16.3056 6.90283 -10.6442
12 2 3 -15.3781 7.5584 -12.871
17 2 2 -17.456 7.47438 -12.5129
16 2 2 -16.6258 8.82422 -11.765
11 2 1 -16.4769 7.7436 -11.9859
3 1 3 -23.3351 -6.77816 22.698
8 1 2 -25.4245 -6.57844 22.6212
9 1 2 -22.4687 -6.20797 22.5223
2 1 1 -24.4268 -5.97908 22.5036
7 1 2 -24.406 -5.65103 21.4182
4 1 2 -23.4317 -4.20021 23.2092
6 1 2 -24.1814 -5.19518 24.5333
1 1 1 -24.3395 -4.78675 23.4465
5 1 2 -25.2371 -4.09866 23.419
ITEM: TIMESTEP
47600
ITEM: NUMBER OF ATOMS
38
ITEM: BOX BOUNDS pp pp pp
-2.6905500000000000e+01 2.6905500000000000e+01
-2.6905500000000000e+01 2.6905500000000000e+01
-2.6905500000000000e+01 2.6905500000000000e+01
ITEM: ATOMS id mol type x y z
23 3 2 -21.6063 -1.43221 -17.2553
25 3 2 -22.0231 0.433556 -15.719
19 3 1 -20.7246 -0.957389 -16.7067
24 3 2 -19.8172 -0.952103 -17.3546
22 3 3 -20.4191 -1.64021 -15.4942
28 3 2 -21.2486 -1.75744 -15.0023
20 3 1 -21.1577 0.446967 -16.3642
26 3 2 -21.3378 0.945219 -17.2769
27 3 2 -20.2783 2.10774 -15.6789
21 3 3 -20.1334 1.13631 -15.7047
37 4 2 3.35441 -13.8876 -10.9814
36 4 2 2.77715 -13.2051 -8.67391
31 4 3 2.91899 -12.9801 -10.7152
30 4 1 2.16234 -13.0463 -9.53256
35 4 2 1.43258 -13.8538 -9.65033
33 4 2 0.906355 -11.5008 -8.45325
34 4 2 2.32498 -10.8949 -9.35477
29 4 1 1.50189 -11.651 -9.37196
32 4 3 0.672465 -11.2403 -10.4348
38 4 2 -0.098257 -11.8863 -10.3949
15 2 2 -15.8696 5.95904 -10.7171
14 2 2 -17.4324 6.68947 -10.2281
18 2 2 -14.7411 8.43933 -11.8197
13 2 2 -15.8975 7.59006 -9.98628
10 2 1 -16.4204 6.91212 -10.6627
12 2 3 -15.0851 7.75129 -12.4183
17 2 2 -16.7869 6.86019 -12.7825
16 2 2 -16.9871 8.46022 -12.0573
11 2 1 -16.4295 7.56264 -11.9914
3 1 3 -23.0979 -7.1899 22.6487
8 1 2 -25.2269 -6.9433 22.8125
9 1 2 -22.336 -6.66662 22.2919
2 1 1 -24.275 -6.37506 22.5435
7 1 2 -24.2813 -6.10225 21.4595
4 1 2 -23.4059 -4.41678 22.8926
6 1 2 -24.1866 -5.24347 24.3606
1 1 1 -24.2579 -5.03644 23.246
5 1 2 -25.1718 -4.44695 23.0433
ITEM: TIMESTEP
47800
ITEM: NUMBER OF ATOMS
38
ITEM: BOX BOUNDS pp pp pp
-2.6905500000000000e+01 2.6905500000000000e+01
-2.6905500000000000e+01 2.6905500000000000e+01
-2.6905500000000000e+01 2.6905500000000000e+01
ITEM: ATOMS id mol type x y z
23 3 2 -20.803 -1.23912 -17.4791
25 3 2 -22.2357 0.313349 -16.1572
19 3 1 -20.3782 -0.630902 -16.6916
24 3 2 -19.3459 -0.395426 -16.9914
22 3 3 -20.3522 -1.26264 -15.464
28 3 2 -21.2921 -1.4884 -15.3357
20 3 1 -21.2272 0.645856 -16.4972
26 3 2 -21.2593 1.11575 -17.4347
27 3 2 -21.1676 2.25204 -15.3812
21 3 3 -20.5814 1.49336 -15.5454
37 4 2 3.40564 -13.8892 -11.0186
36 4 2 2.70653 -13.538 -8.88148
31 4 3 2.93116 -12.9974 -10.8375
30 4 1 2.0963 -13.2184 -9.70871
35 4 2 1.34104 -14.1183 -9.85179
33 4 2 0.663582 -12.1742 -8.4789
34 4 2 1.99543 -11.1906 -9.03608
29 4 1 1.2685 -11.9644 -9.34905
32 4 3 0.584605 -11.4542 -10.3883
38 4 2 -0.0091756 -12.2019 -10.6246
15 2 2 -16.0852 5.86167 -10.2332
14 2 2 -17.7682 6.38319 -10.4066
18 2 2 -15.0778 8.30749 -11.6383
13 2 2 -16.5845 7.53008 -9.78511
10 2 1 -16.7242 6.68294 -10.5119
12 2 3 -15.2048 7.5708 -12.2379
17 2 2 -16.7117 6.23896 -12.666
16 2 2 -17.2659 7.89996 -12.2956
11 2 1 -16.4977 7.11976 -12.0182
3 1 3 -22.9995 -6.94622 22.9159
8 1 2 -25.1135 -6.88397 23.0379
9 1 2 -22.1891 -6.32135 22.7648
2 1 1 -24.219 -6.25578 22.693
7 1 2 -24.3348 -6.08495 21.6395
4 1 2 -23.6651 -4.25451 23.0573
6 1 2 -24.256 -5.03044 24.5439
1 1 1 -24.3842 -4.93512 23.4417
5 1 2 -25.4242 -4.62809 23.1569
ITEM: TIMESTEP
48000
ITEM: NUMBER OF ATOMS
38
ITEM: BOX BOUNDS pp pp pp
-2.6905500000000000e+01 2.6905500000000000e+01
-2.6905500000000000e+01 2.6905500000000000e+01
-2.6905500000000000e+01 2.6905500000000000e+01
ITEM: ATOMS id mol type x y z
23 3 2 -20.8209 -0.88075 -17.8799
25 3 2 -21.8456 0.842387 -16.6353
19 3 1 -20.2645 -0.486175 -17.0305
24 3 2 -19.1428 -0.528255 -17.2922
22 3 3 -20.3998 -1.28884 -15.9352
28 3 2 -21.3033 -1.15146 -15.5714
20 3 1 -20.8258 0.944958 -16.8594
26 3 2 -20.7597 1.56178 -17.7676
27 3 2 -20.8746 2.4593 -15.629
21 3 3 -20.2563 1.64134 -15.8068
37 4 2 3.36102 -14.3251 -10.9459
36 4 2 1.88418 -13.9574 -9.03525
31 4 3 2.92158 -13.4403 -10.8037
30 4 1 1.70466 -13.4921 -9.95622
35 4 2 0.853732 -14.0572 -10.4044
33 4 2 0.337464 -12.2124 -8.90778
34 4 2 1.9515 -11.636 -9.08266
29 4 1 1.15086 -12.0607 -9.64563
32 4 3 0.773311 -11.3884 -10.8325
38 4 2 0.138443 -11.9472 -11.4173
15 2 2 -15.606 5.82747 -10.0999
14 2 2 -17.1846 6.75966 -10.0324
18 2 2 -14.1501 7.79923 -12.0633
13 2 2 -15.6193 7.67565 -9.90294
10 2 1 -16.085 6.80227 -10.4046
12 2 3 -14.5943 6.93285 -12.275
17 2 2 -16.4274 6.03579 -12.4156
16 2 2 -16.4803 7.89733 -12.3816
11 2 1 -15.9714 6.95722 -11.9571
3 1 3 -22.6429 -6.81755 22.8254
8 1 2 -24.4935 -7.38368 23.2926
9 1 2 -22.1426 -5.98312 22.6175
2 1 1 -23.9823 -6.527 22.9224
7 1 2 -24.3474 -6.26157 21.9463
4 1 2 -23.8438 -4.50789 23.5629
6 1 2 -23.8772 -5.68959 24.92
1 1 1 -24.3318 -5.40085 23.9066
5 1 2 -25.4388 -5.04878 23.94
ITEM: TIMESTEP
48200
ITEM: NUMBER OF ATOMS
38
ITEM: BOX BOUNDS pp pp pp
-2.6905500000000000e+01 2.6905500000000000e+01
-2.6905500000000000e+01 2.6905500000000000e+01
-2.6905500000000000e+01 2.6905500000000000e+01
ITEM: ATOMS id mol type x y z
23 3 2 -21.0076 -0.881191 -18.1361
19 3 1 -20.5312 -0.392848 -17.2723
22 3 3 -20.7475 -1.1851 -16.1465
28 3 2 -21.6741 -1.26698 -15.9502
24 3 2 -19.4251 -0.346001 -17.4155
25 3 2 -22.0534 1.08502 -17.0515
20 3 1 -20.9845 1.02418 -17.0652
26 3 2 -20.6821 1.69397 -17.9691
27 3 2 -20.876 2.56059 -15.7659
21 3 3 -20.4104 1.63953 -15.9139
37 4 2 3.12716 -14.3735 -11.2736
36 4 2 1.43187 -14.662 -9.58896
31 4 3 2.72722 -13.6304 -10.8359
30 4 1 1.34141 -13.873 -10.4678
35 4 2 0.700539 -14.3454 -11.2657
33 4 2 -0.419778 -12.8085 -9.62419
34 4 2 1.19367 -12.1351 -9.13894
29 4 1 0.633037 -12.5557 -9.93493
32 4 3 0.672745 -11.5863 -10.9334
38 4 2 0.110187 -11.9522 -11.6967
15 2 2 -15.9346 5.81732 -10.189
14 2 2 -16.9391 7.26063 -10.0732
10 2 1 -15.9417 6.90424 -10.4276
17 2 2 -16.6106 6.61231 -12.4425
18 2 2 -13.9021 6.70937 -11.6508
13 2 2 -15.0498 7.40231 -9.89891
12 2 3 -14.6392 6.49487 -12.3313
16 2 2 -15.7814 8.15852 -12.203
11 2 1 -15.8102 7.06815 -11.9157
3 1 3 -22.4604 -6.91151 23.019
8 1 2 -24.2456 -7.78178 23.6528
9 1 2 -22.2993 -6.25087 22.3105
2 1 1 -23.8758 -6.85716 23.1372
7 1 2 -24.4093 -6.91789 22.2033
4 1 2 -24.0842 -4.69501 23.2477
6 1 2 -23.8618 -5.50866 24.8764
1 1 1 -24.2935 -5.58527 23.8812
5 1 2 -25.3761 -5.6491 24.0466
ITEM: TIMESTEP
48400
ITEM: NUMBER OF ATOMS
38
ITEM: BOX BOUNDS pp pp pp
-2.6905500000000000e+01 2.6905500000000000e+01
-2.6905500000000000e+01 2.6905500000000000e+01
-2.6905500000000000e+01 2.6905500000000000e+01
ITEM: ATOMS id mol type x y z
23 3 2 -20.6112 -1.21332 -18.0294
19 3 1 -20.3665 -0.68805 -17.1026
22 3 3 -20.9386 -1.36787 -15.9885
28 3 2 -21.8647 -1.31446 -16.1314
24 3 2 -19.3148 -0.738292 -16.962
25 3 2 -21.8248 0.75027 -17.4568
20 3 1 -20.812 0.745928 -17.2549
26 3 2 -20.2143 1.16119 -18.134
27 3 2 -20.9433 2.39096 -16.3683
21 3 3 -20.563 1.50547 -16.1641
37 4 2 2.52929 -14.7798 -11.5904
36 4 2 1.81549 -14.7265 -9.50529
31 4 3 2.53383 -13.8629 -11.1631
30 4 1 1.47171 -13.8946 -10.1572
35 4 2 0.486363 -14.1599 -10.6014
33 4 2 0.432575 -12.7604 -8.73007
34 4 2 2.24348 -12.2724 -9.02993
29 4 1 1.25699 -12.5788 -9.51638
32 4 3 0.816874 -11.5891 -10.4307
38 4 2 -0.100253 -11.7588 -10.7464
15 2 2 -15.7494 5.26339 -10.1498
14 2 2 -16.6871 6.54663 -9.30398
10 2 1 -15.8545 6.3831 -9.99538
17 2 2 -16.927 6.53761 -11.8388
18 2 2 -14.109 6.68795 -11.9157
13 2 2 -14.8589 6.8629 -9.51596
12 2 3 -14.9225 6.41866 -12.3206
16 2 2 -16.0027 7.98679 -11.406
11 2 1 -16.0068 6.88142 -11.4574
3 1 3 -22.7877 -6.83346 23.5261
8 1 2 -24.6568 -7.72988 23.4909
9 1 2 -22.3327 -5.99893 23.2164
2 1 1 -24.1747 -6.71147 23.2475
7 1 2 -24.3857 -6.5435 22.225
4 1 2 -24.5579 -4.58995 23.7471
6 1 2 -24.6606 -5.87101 25.0208
1 1 1 -24.9129 -5.62469 24.0074
5 1 2 -26.0168 -5.73554 23.7402
ITEM: TIMESTEP
48600
ITEM: NUMBER OF ATOMS
38
ITEM: BOX BOUNDS pp pp pp
-2.6905500000000000e+01 2.6905500000000000e+01
-2.6905500000000000e+01 2.6905500000000000e+01
-2.6905500000000000e+01 2.6905500000000000e+01
ITEM: ATOMS id mol type x y z
23 3 2 -20.4743 -1.35625 -17.8865
19 3 1 -20.3148 -0.687226 -16.9603
22 3 3 -20.7597 -1.33811 -15.8226
28 3 2 -21.804 -1.40451 -15.8816
24 3 2 -19.1688 -0.532884 -16.9108
25 3 2 -22.0862 0.554772 -17.272
20 3 1 -21.0139 0.663747 -17.2541
26 3 2 -20.6285 1.1138 -18.157
27 3 2 -21.3139 2.25549 -16.1373
21 3 3 -20.6899 1.47886 -16.1453
37 4 2 1.72424 -14.7648 -11.9618
36 4 2 1.69964 -14.7767 -9.63016
31 4 3 1.90233 -13.8901 -11.4983
30 4 1 1.29475 -13.9569 -10.176
35 4 2 0.241918 -14.2261 -10.381
33 4 2 0.930068 -12.7792 -8.22274
34 4 2 2.42355 -12.4085 -9.10056
29 4 1 1.3862 -12.6395 -9.27688
32 4 3 0.810443 -11.5726 -9.93555
38 4 2 -0.176731 -11.7279 -10.044
15 2 2 -16.574 4.78275 -10.4921
14 2 2 -16.4862 6.49978 -9.67847
10 2 1 -16.0582 5.79212 -10.3763
17 2 2 -17.1776 6.70158 -12.0254
18 2 2 -14.5626 5.77042 -12.5638
13 2 2 -14.9564 5.58053 -10.1469
12 2 3 -15.5147 5.85351 -12.7145
16 2 2 -15.6097 7.60512 -11.5439
11 2 1 -16.1375 6.5803 -11.6904
3 1 3 -22.774 -6.76741 23.0601
8 1 2 -24.5646 -7.69604 23.1177
9 1 2 -22.363 -5.82554 22.9867
2 1 1 -24.2175 -6.66467 23.0809
7 1 2 -24.4627 -6.36436 22.0684
4 1 2 -24.4442 -4.74958 23.9844
6 1 2 -24.4484 -6.12401 25.1663
1 1 1 -24.795 -5.78843 24.153
5 1 2 -25.9215 -5.75411 24.2341
ITEM: TIMESTEP
48800
ITEM: NUMBER OF ATOMS
38
ITEM: BOX BOUNDS pp pp pp
-2.6905500000000000e+01 2.6905500000000000e+01
-2.6905500000000000e+01 2.6905500000000000e+01
-2.6905500000000000e+01 2.6905500000000000e+01
ITEM: ATOMS id mol type x y z
23 3 2 -21.3049 -1.10788 -17.5567
19 3 1 -20.7642 -0.619324 -16.7027
22 3 3 -20.9512 -1.36903 -15.5178
28 3 2 -21.8801 -1.61418 -15.4748
24 3 2 -19.6651 -0.521947 -16.8706
25 3 2 -22.4552 0.72843 -16.6096
20 3 1 -21.3356 0.813778 -16.7448
26 3 2 -21.2671 1.2577 -17.7804
27 3 2 -21.1398 2.45453 -15.8384
21 3 3 -20.6492 1.60268 -15.83
37 4 2 0.933835 -14.8468 -11.8883
36 4 2 1.30782 -15.0573 -9.65318
31 4 3 1.41603 -14.1168 -11.4886
30 4 1 0.971563 -14.1284 -10.1448
35 4 2 -0.149792 -13.957 -10.1785
33 4 2 1.32841 -12.9181 -8.21376
34 4 2 2.70091 -12.9419 -9.33911
29 4 1 1.60266 -12.9328 -9.3867
32 4 3 1.14675 -11.6871 -9.98234
38 4 2 0.131866 -11.6865 -9.86843
15 2 2 -16.7457 5.21016 -10.1635
14 2 2 -17.3214 6.92935 -10.331
10 2 1 -16.4741 6.23853 -10.4625
17 2 2 -16.7669 5.80306 -12.5337
18 2 2 -14.1075 5.96706 -11.5425
13 2 2 -15.7021 6.57109 -9.76444
12 2 3 -14.7866 5.4784 -12.0738
16 2 2 -15.8595 7.28361 -12.232
11 2 1 -15.9633 6.2329 -11.8699
3 1 3 -22.6536 -6.35037 23.3815
8 1 2 -23.9619 -8.02061 23.4907
9 1 2 -22.6041 -5.47588 22.9821
2 1 1 -23.9762 -6.9205 23.3435
7 1 2 -24.4787 -6.71763 22.3653
4 1 2 -24.9144 -5.17399 24.3441
6 1 2 -24.4499 -6.41061 25.4736
1 1 1 -24.8574 -6.26564 24.502
5 1 2 -25.8284 -6.73283 24.4671
ITEM: TIMESTEP
49000
ITEM: NUMBER OF ATOMS
38
ITEM: BOX BOUNDS pp pp pp
-2.6905500000000000e+01 2.6905500000000000e+01
-2.6905500000000000e+01 2.6905500000000000e+01
-2.6905500000000000e+01 2.6905500000000000e+01
ITEM: ATOMS id mol type x y z
23 3 2 -21.0662 -1.34286 -17.3737
19 3 1 -20.7257 -0.640178 -16.5658
22 3 3 -21.1211 -1.0727 -15.3315
28 3 2 -22.094 -1.19822 -15.5042
24 3 2 -19.6477 -0.530805 -16.5799
25 3 2 -22.2405 0.752016 -17.0268
20 3 1 -21.1914 0.755892 -16.8833
26 3 2 -20.7712 1.02631 -17.8338
27 3 2 -21.2142 2.45402 -16.2714
21 3 3 -20.7839 1.65965 -15.9815
37 4 2 0.65398 -14.9668 -12.0372
36 4 2 0.751706 -15.0193 -9.72988
31 4 3 1.144 -14.2052 -11.638
30 4 1 0.624033 -14.1002 -10.2642
35 4 2 -0.48495 -13.8378 -10.1721
33 4 2 0.921324 -13.0795 -8.44332
34 4 2 2.44774 -13.179 -9.41175
29 4 1 1.35366 -13.0586 -9.44084
32 4 3 1.20447 -11.7792 -9.87417
38 4 2 0.274897 -11.5429 -9.98276
15 2 2 -16.7357 5.0949 -9.97571
14 2 2 -17.713 6.51492 -10.6701
10 2 1 -16.7079 6.10511 -10.5206
17 2 2 -16.7687 5.30702 -12.4861
18 2 2 -14.2883 5.98893 -11.2486
13 2 2 -16.2348 6.90336 -9.90556
12 2 3 -14.7812 5.47048 -11.9291
16 2 2 -15.9983 6.98566 -12.3472
11 2 1 -16.0766 5.93249 -11.8872
3 1 3 -22.7883 -6.19666 23.3098
8 1 2 -24.036 -7.71132 23.3128
9 1 2 -22.7454 -5.17353 23.2425
2 1 1 -24.0247 -6.64005 23.1197
7 1 2 -24.3147 -6.52373 22.0545
4 1 2 -25.092 -4.94237 23.6845
6 1 2 -24.9505 -6.07199 25.0976
1 1 1 -25.114 -5.98037 23.9777
5 1 2 -26.0762 -6.44925 23.7043
ITEM: TIMESTEP
49200
ITEM: NUMBER OF ATOMS
38
ITEM: BOX BOUNDS pp pp pp
-2.6905500000000000e+01 2.6905500000000000e+01
-2.6905500000000000e+01 2.6905500000000000e+01
-2.6905500000000000e+01 2.6905500000000000e+01
ITEM: ATOMS id mol type x y z
23 3 2 -21.7136 -1.42638 -17.1511
19 3 1 -21.0534 -0.737656 -16.5405
22 3 3 -21.1299 -1.32016 -15.2405
28 3 2 -22.0654 -1.27326 -15.0535
24 3 2 -20.0556 -0.882208 -16.994
25 3 2 -22.4987 0.867562 -16.1347
20 3 1 -21.5457 0.716587 -16.5928
26 3 2 -21.6195 1.03134 -17.7124
27 3 2 -20.9673 2.45783 -15.7804
21 3 3 -20.6097 1.49819 -15.9122
35 4 2 -0.529508 -14.1194 -10.376
37 4 2 0.608695 -15.2317 -12.1866
36 4 2 0.806382 -15.2887 -10.0272
31 4 3 1.04723 -14.4001 -11.8555
30 4 1 0.580129 -14.3147 -10.4848
38 4 2 0.168664 -11.7745 -10.346
33 4 2 0.792398 -13.1888 -8.57662
34 4 2 2.39977 -13.4126 -9.55168
29 4 1 1.23607 -13.2686 -9.60799
32 4 3 1.12523 -12.0199 -10.1313
15 2 2 -16.4897 4.78189 -10.3099
14 2 2 -17.7359 5.97234 -10.7286
10 2 1 -16.6217 5.7813 -10.7186
17 2 2 -16.6132 5.11528 -12.7877
18 2 2 -14.3052 6.2823 -11.7159
12 2 3 -14.7266 5.54017 -12.2217
11 2 1 -16.0904 5.857 -12.1543
13 2 2 -16.1681 6.57122 -10.0642
16 2 2 -16.2431 6.94848 -12.5145
8 1 2 -24.0827 -7.50321 24.0288
7 1 2 -24.486 -6.71121 22.4101
3 1 3 -22.8206 -6.0196 23.5501
9 1 2 -22.871 -5.31296 22.8551
2 1 1 -24.1275 -6.53303 23.4612
4 1 2 -25.0995 -4.59583 23.718
6 1 2 -24.6459 -5.42083 25.2985
1 1 1 -25.082 -5.61522 24.2666
5 1 2 -26.1836 -6.07168 24.3147
ITEM: TIMESTEP
49400
ITEM: NUMBER OF ATOMS
38
ITEM: BOX BOUNDS pp pp pp
-2.6905500000000000e+01 2.6905500000000000e+01
-2.6905500000000000e+01 2.6905500000000000e+01
-2.6905500000000000e+01 2.6905500000000000e+01
ITEM: ATOMS id mol type x y z
23 3 2 -21.9063 -1.05815 -17.5584
19 3 1 -21.2711 -0.492833 -16.873
22 3 3 -21.132 -1.17546 -15.6656
28 3 2 -21.9746 -1.21496 -15.0774
24 3 2 -20.2952 -0.482296 -17.3439
25 3 2 -22.5808 0.933731 -16.1764
20 3 1 -21.6714 0.920411 -16.6974
26 3 2 -21.6893 1.39584 -17.6908
27 3 2 -20.8629 2.59164 -15.9483
21 3 3 -20.66 1.58611 -15.9525
35 4 2 -0.438235 -14.037 -9.93767
37 4 2 0.469184 -14.8661 -11.6451
36 4 2 0.819941 -15.138 -9.33243
31 4 3 1.1553 -14.2661 -11.144
30 4 1 0.640134 -14.2094 -9.8547
38 4 2 0.364608 -11.5823 -9.56613
33 4 2 1.06961 -13.112 -7.9189
34 4 2 2.46924 -13.3319 -9.06898
29 4 1 1.40658 -13.1267 -9.04134
32 4 3 1.31587 -11.8457 -9.6109
15 2 2 -16.4441 5.1456 -9.99891
14 2 2 -17.9633 5.88166 -10.7752
10 2 1 -16.8715 5.8868 -10.7759
17 2 2 -16.8157 4.44347 -12.2597
18 2 2 -14.6446 6.32944 -12.1588
12 2 3 -14.9349 5.41067 -12.1303
11 2 1 -16.3994 5.47022 -12.0727
13 2 2 -16.7432 6.9916 -10.4978
16 2 2 -16.9576 6.14068 -12.784
8 1 2 -24.2768 -7.28382 23.5644
7 1 2 -24.3027 -6.50585 21.8506
3 1 3 -22.9676 -5.83069 23.2654
9 1 2 -22.9151 -4.97326 22.789
2 1 1 -24.2684 -6.29769 23.0035
4 1 2 -25.1715 -4.40178 23.0796
6 1 2 -25.2311 -5.24552 24.6169
1 1 1 -25.3048 -5.34853 23.5442
5 1 2 -26.3317 -5.65527 23.2958
ITEM: TIMESTEP
49600
ITEM: NUMBER OF ATOMS
38
ITEM: BOX BOUNDS pp pp pp
-2.6905500000000000e+01 2.6905500000000000e+01
-2.6905500000000000e+01 2.6905500000000000e+01
-2.6905500000000000e+01 2.6905500000000000e+01
ITEM: ATOMS id mol type x y z
23 3 2 -22.2963 -0.783857 -17.5097
19 3 1 -21.3949 -0.218443 -17.1514
22 3 3 -20.8077 -1.02861 -16.155
28 3 2 -21.4347 -0.976701 -15.3603
24 3 2 -20.7568 -0.121323 -18.1261
25 3 2 -22.4042 1.10672 -15.7365
20 3 1 -21.7684 1.14768 -16.6304
26 3 2 -22.2377 1.74856 -17.4773
27 3 2 -20.7375 2.78 -16.1274
21 3 3 -20.5713 1.81285 -16.3333
35 4 2 -0.501492 -13.7063 -9.38626
37 4 2 0.0823309 -14.9824 -11.3166
36 4 2 0.692714 -15.0743 -9.17575
31 4 3 0.66604 -14.2381 -10.9547
30 4 1 0.550759 -14.0373 -9.58815
38 4 2 0.461253 -11.4709 -9.57415
33 4 2 1.54849 -12.8866 -8.11418
34 4 2 2.60185 -13.4035 -9.53586
29 4 1 1.56831 -13.0013 -9.18558
32 4 3 1.28907 -11.8303 -9.89327
15 2 2 -16.8629 5.4029 -9.60982
14 2 2 -18.3849 5.70149 -10.4825
10 2 1 -17.2734 5.81688 -10.5099
17 2 2 -16.8423 3.9906 -11.8015
18 2 2 -15.0102 6.28498 -11.7883
12 2 3 -15.1282 5.30762 -11.7766
11 2 1 -16.6197 5.11185 -11.7653
13 2 2 -17.004 6.88076 -10.562
16 2 2 -16.9527 5.57279 -12.6908
8 1 2 -24.3579 -6.92005 24.3358
7 1 2 -24.7212 -6.70563 22.6091
3 1 3 -22.8472 -5.90664 23.3031
9 1 2 -22.7788 -5.34929 22.4277
2 1 1 -24.232 -6.20689 23.4692
4 1 2 -25.1993 -4.22894 23.098
6 1 2 -24.6791 -4.60035 24.7756
1 1 1 -25.1295 -5.02317 23.913
5 1 2 -26.1277 -5.33359 24.1473
ITEM: TIMESTEP
49800
ITEM: NUMBER OF ATOMS
38
ITEM: BOX BOUNDS pp pp pp
-2.6905500000000000e+01 2.6905500000000000e+01
-2.6905500000000000e+01 2.6905500000000000e+01
-2.6905500000000000e+01 2.6905500000000000e+01
ITEM: ATOMS id mol type x y z
23 3 2 -22.8649 -0.833816 -16.7043
19 3 1 -21.8055 -0.501969 -16.9241
22 3 3 -20.9567 -1.25215 -16.0752
28 3 2 -20.9911 -1.01704 -15.1671
24 3 2 -21.5888 -0.736056 -17.9792
25 3 2 -22.1746 1.28318 -15.589
20 3 1 -21.8121 1.01731 -16.6276
26 3 2 -22.4768 1.5409 -17.2406
27 3 2 -20.5389 2.41506 -16.6719
21 3 3 -20.4873 1.47744 -16.7921
35 4 2 -0.424339 -13.2856 -9.24096
37 4 2 0.575611 -14.9364 -10.6437
36 4 2 0.975194 -14.1733 -8.51964
31 4 3 1.063 -14.0671 -10.5144
30 4 1 0.707079 -13.5518 -9.32155
38 4 2 0.535122 -10.9506 -10.0401
33 4 2 1.27528 -11.8577 -8.08859
34 4 2 2.63907 -12.6626 -9.03713
29 4 1 1.54048 -12.3078 -9.06026
32 4 3 1.45919 -11.3241 -10.0679
15 2 2 -16.6107 5.04188 -9.6686
14 2 2 -17.9325 6.27537 -10.1527
10 2 1 -16.8262 5.86824 -10.3112
17 2 2 -17.6711 4.43178 -11.8083
18 2 2 -14.8569 5.31067 -12.0047
12 2 3 -15.6551 4.63932 -12.0731
11 2 1 -16.9154 5.24363 -11.7178
13 2 2 -16.0217 6.64585 -10.1859
16 2 2 -17.1634 6.02216 -12.491
8 1 2 -24.2748 -6.89437 23.94
7 1 2 -24.3734 -6.59421 22.153
3 1 3 -22.8254 -5.70858 23.2255
9 1 2 -22.7427 -4.86878 22.6695
2 1 1 -24.159 -6.19062 23.1386
4 1 2 -25.2105 -4.31229 22.6976
6 1 2 -25.1542 -4.64908 24.4987
1 1 1 -25.252 -5.14302 23.487
5 1 2 -26.2479 -5.6117 23.3452
ITEM: TIMESTEP
50000
ITEM: NUMBER OF ATOMS
38
ITEM: BOX BOUNDS pp pp pp
-2.6905500000000000e+01 2.6905500000000000e+01
-2.6905500000000000e+01 2.6905500000000000e+01
-2.6905500000000000e+01 2.6905500000000000e+01
ITEM: ATOMS id mol type x y z
23 3 2 -22.9612 -1.18875 -16.8482
19 3 1 -21.9197 -0.736095 -16.9238
22 3 3 -21.0714 -1.49719 -16.1055
28 3 2 -21.4405 -1.47104 -15.1366
24 3 2 -21.5801 -0.908221 -17.9522
25 3 2 -22.2965 1.0731 -15.7118
20 3 1 -22.0564 0.804002 -16.7449
26 3 2 -22.8393 1.13664 -17.4744
27 3 2 -21.0596 2.35437 -17.1184
21 3 3 -20.8132 1.35685 -17.0915
35 4 2 -0.204843 -12.9545 -9.74895
37 4 2 0.857147 -15.0039 -10.4473
36 4 2 0.719078 -13.7927 -8.47586
31 4 3 1.30096 -14.1305 -10.4065
30 4 1 0.828121 -13.2813 -9.47655
38 4 2 0.937766 -10.9591 -10.7914
33 4 2 1.35882 -11.4279 -8.50547
34 4 2 2.76501 -12.2997 -9.0775
29 4 1 1.73303 -12.0117 -9.3111
32 4 3 1.82371 -11.3299 -10.5265
15 2 2 -16.6312 4.90244 -9.55042
14 2 2 -17.8653 6.27539 -9.9198
10 2 1 -16.9546 5.73972 -10.2153
17 2 2 -18.031 4.37654 -11.6239
18 2 2 -15.3842 5.25 -12.1963
12 2 3 -16.0227 4.53156 -12.2173
11 2 1 -17.2207 5.15039 -11.6332
13 2 2 -16.1031 6.47395 -10.3102
16 2 2 -17.4744 5.90532 -12.3785
8 1 2 -23.918 -6.44349 24.8669
7 1 2 -23.9825 -7.1857 23.174
3 1 3 -22.5463 -5.63703 23.4519
9 1 2 -22.3618 -5.46386 22.5565
2 1 1 -23.8577 -6.25167 23.7462
4 1 2 -24.8675 -4.99542 22.2694
6 1 2 -24.6347 -4.25104 24.0566
1 1 1 -24.8551 -5.13433 23.3939
5 1 2 -25.8352 -5.62122 23.6917
