LAMMPS (10 Dec 2025)
OMP_NUM_THREADS environment is not set. Defaulting to 1 thread.
  using 1 OpenMP thread(s) per MPI task
# LAMMPS Input file generated by HEROINE (CHONS Forcefield)

units real
atom_style full
boundary p p p

read_data /home/hy/code/projects/heroine/output/gradio_run_ce9aca53/system.data
Reading data file ...
  orthogonal box = (-26.9055 -26.9055 -26.9055) to (26.9055 26.9055 26.9055)
  1 by 1 by 1 MPI processor grid
  reading atoms ...
  235 atoms
  scanning bonds ...
  4 = max bonds/atom
  scanning angles ...
  6 = max angles/atom
  scanning dihedrals ...
  18 = max dihedrals/atom
  orthogonal box = (-26.9055 -26.9055 -26.9055) to (26.9055 26.9055 26.9055)
  1 by 1 by 1 MPI processor grid
  reading bonds ...
  246 bonds
  reading angles ...
  437 angles
  reading dihedrals ...
  648 dihedrals
Finding 1-2 1-3 1-4 neighbors ...
  special bond factors lj:    0        0        0       
  special bond factors coul:  0        0        0       
     4 = max # of 1-2 neighbors
     9 = max # of 1-3 neighbors
    19 = max # of 1-4 neighbors
    20 = max # of special neighbors
  special bonds CPU = 0.000 seconds
  read_data CPU = 0.011 seconds

# Force Field
pair_style lj/cut 10.65
pair_modify mix arithmetic
pair_coeff 1 1 0.066 3.5
pair_coeff 2 2 0.03 2.5
pair_coeff 3 3 0.17 3.12
pair_coeff 4 4 0.17 3.25
pair_coeff 5 5 0.25 3.55

bond_style harmonic
bond_coeff 1 300.0 1.4
bond_coeff 2 300.0 1.53
bond_coeff 3 300.0 1.41
bond_coeff 4 300.0 1.42
bond_coeff 5 300.0 1.52
bond_coeff 6 300.0 0.99
bond_coeff 7 300.0 1.12
bond_coeff 8 300.0 1.11
bond_coeff 9 300.0 1.56
bond_coeff 10 300.0 1.54
bond_coeff 11 300.0 1.55
bond_coeff 12 300.0 1.49
bond_coeff 13 600.0 1.26
bond_coeff 14 300.0 1.48
bond_coeff 15 300.0 1.39
bond_coeff 16 600.0 1.22
bond_coeff 17 300.0 1.51
bond_coeff 18 300.0 1.46
bond_coeff 19 300.0 1.43
bond_coeff 20 300.0 1.01
bond_coeff 21 300.0 1.08
bond_coeff 22 300.0 1.04
bond_coeff 23 300.0 1.05

angle_style harmonic
angle_coeff 1 60.0 106.8
angle_coeff 2 60.0 110.4
angle_coeff 3 60.0 110.3
angle_coeff 4 60.0 108.6
angle_coeff 5 60.0 110.1
angle_coeff 6 60.0 109.3
angle_coeff 7 60.0 108.0
angle_coeff 8 60.0 108.9
angle_coeff 9 60.0 108.3
angle_coeff 10 60.0 108.7
angle_coeff 11 60.0 111.3
angle_coeff 12 60.0 109.5
angle_coeff 13 60.0 109.6
angle_coeff 14 60.0 111.0
angle_coeff 15 60.0 110.2
angle_coeff 16 60.0 108.5
angle_coeff 17 60.0 109.4
angle_coeff 18 60.0 108.4
angle_coeff 19 60.0 113.7
angle_coeff 20 60.0 107.6
angle_coeff 21 60.0 106.4
angle_coeff 22 60.0 110.6
angle_coeff 23 60.0 110.9
angle_coeff 24 60.0 108.2
angle_coeff 25 60.0 108.1
angle_coeff 26 60.0 111.2
angle_coeff 27 60.0 109.2
angle_coeff 28 60.0 107.7
angle_coeff 29 60.0 113.6
angle_coeff 30 60.0 107.8
angle_coeff 31 60.0 106.6
angle_coeff 32 60.0 110.8
angle_coeff 33 60.0 113.2
angle_coeff 34 60.0 106.1
angle_coeff 35 60.0 114.7
angle_coeff 36 60.0 106.0
angle_coeff 37 60.0 105.9
angle_coeff 38 60.0 110.5
angle_coeff 39 60.0 108.8
angle_coeff 40 60.0 112.0
angle_coeff 41 60.0 110.0
angle_coeff 42 60.0 107.5
angle_coeff 43 60.0 109.1
angle_coeff 44 60.0 111.7
angle_coeff 45 60.0 112.3
angle_coeff 46 60.0 113.0
angle_coeff 47 60.0 109.7
angle_coeff 48 60.0 107.4
angle_coeff 49 60.0 114.1
angle_coeff 50 60.0 112.8
angle_coeff 51 60.0 105.4
angle_coeff 52 60.0 112.5
angle_coeff 53 60.0 109.9
angle_coeff 54 60.0 107.1
angle_coeff 55 60.0 109.8
angle_coeff 56 60.0 111.1
angle_coeff 57 60.0 114.4
angle_coeff 58 60.0 107.0
angle_coeff 59 60.0 120.9
angle_coeff 60 60.0 119.6
angle_coeff 61 60.0 119.4
angle_coeff 62 60.0 119.9
angle_coeff 63 60.0 122.0
angle_coeff 64 60.0 117.8
angle_coeff 65 60.0 120.4
angle_coeff 66 60.0 118.0
angle_coeff 67 60.0 121.5
angle_coeff 68 60.0 121.9
angle_coeff 69 60.0 118.7
angle_coeff 70 60.0 119.8
angle_coeff 71 60.0 119.1
angle_coeff 72 60.0 121.1
angle_coeff 73 60.0 118.8
angle_coeff 74 60.0 120.3
angle_coeff 75 60.0 124.4
angle_coeff 76 60.0 120.6
angle_coeff 77 60.0 120.0
angle_coeff 78 60.0 119.7
angle_coeff 79 60.0 118.6
angle_coeff 80 60.0 121.6
angle_coeff 81 60.0 119.5
angle_coeff 82 60.0 120.2
angle_coeff 83 60.0 119.3
angle_coeff 84 60.0 121.2
angle_coeff 85 60.0 118.3
angle_coeff 86 60.0 120.7
angle_coeff 87 60.0 124.7
angle_coeff 88 60.0 123.9
angle_coeff 89 60.0 106.7
angle_coeff 90 60.0 106.2
angle_coeff 91 60.0 107.2

dihedral_style harmonic
dihedral_coeff 1 1.0 1 3

neighbor 2.0 bin
neigh_modify delay 0 every 10 check yes

# 1-4 interactions are typically scaled in molecular force fields
special_bonds lj 0.0 0.0 0.5
Finding 1-2 1-3 1-4 neighbors ...
  special bond factors lj:    0        0        0.5     
  special bond factors coul:  0        0        0       
     4 = max # of 1-2 neighbors
     9 = max # of 1-3 neighbors
    19 = max # of 1-4 neighbors
    20 = max # of special neighbors
  special bonds CPU = 0.000 seconds

# Group definitions
group all_atoms type 1 2 3 4 5
235 atoms in group all_atoms

# Simulation Protocol
minimize 1.0e-4 1.0e-6 1000 10000
Switching to 'neigh_modify every 1 delay 0 check yes' setting during minimization
Generated 10 of 10 mixed pair_coeff terms from arithmetic mixing rule
Neighbor list info ...
  update: every = 1 steps, delay = 0 steps, check = yes
  max neighbors/atom: 2000, page size: 100000
  master list distance cutoff = 12.65
  ghost atom cutoff = 12.65
  binsize = 6.325, bins = 9 9 9
  1 neighbor lists, perpetual/occasional/extra = 1 0 0
  (1) pair lj/cut, perpetual
      attributes: half, newton on
      pair build: half/bin/newton
      stencil: half/bin/3d
      bin: standard
Per MPI rank memory allocation (min/avg/max) = 15.99 | 15.99 | 15.99 Mbytes
   Step          Temp          E_pair         E_mol          TotEng         Press     
         0   0              592.21764      431.00634      1023.224       1246.0686    
       191   0              64.808349      217.69478      282.50313      2.0436665    
Loop time of 0.0487621 on 1 procs for 191 steps with 235 atoms

100.0% CPU use with 1 MPI tasks x 1 OpenMP threads

Minimization stats:
  Stopping criterion = energy tolerance
  Energy initial, next-to-last, final = 
      1023.22397982796   282.527163370047   282.503133494127
  Force two-norm initial, final = 5551.3372 5.3511276
  Force max component initial, final = 3531.033 0.87435829
  Final line search alpha, max atom move = 0.019057453 0.016663042
  Iterations, force evaluations = 191 379

MPI task timing breakdown:
Section |  min time  |  avg time  |  max time  |%varavg| %total
---------------------------------------------------------------
Pair    | 0.028847   | 0.028847   | 0.028847   |   0.0 | 59.16
Bond    | 0.017003   | 0.017003   | 0.017003   |   0.0 | 34.87
Neigh   | 0.00096666 | 0.00096666 | 0.00096666 |   0.0 |  1.98
Comm    | 0.00063303 | 0.00063303 | 0.00063303 |   0.0 |  1.30
Output  | 0          | 0          | 0          |   0.0 |  0.00
Modify  | 0          | 0          | 0          |   0.0 |  0.00
Other   |            | 0.001312   |            |       |  2.69

Nlocal:            235 ave         235 max         235 min
Histogram: 1 0 0 0 0 0 0 0 0 0
Nghost:            551 ave         551 max         551 min
Histogram: 1 0 0 0 0 0 0 0 0 0
Neighs:           7474 ave        7474 max        7474 min
Histogram: 1 0 0 0 0 0 0 0 0 0

Total # of neighbors = 7474
Ave neighs/atom = 31.804255
Ave special neighs/atom = 10.944681
Neighbor list builds = 4
Dangerous builds = 0
reset_timestep 0

timestep 1.0

# 2. Equilibration / Dynamics
fix 1 all langevin 300.0 300.0 20.0 11100
fix 2 all nve

# Output
dump 1 all custom 400 /home/hy/code/projects/heroine/output/gradio_run_ce9aca53/trajectory.dump id mol type x y z
compute rg all gyration
thermo_style custom step c_rg temp epair
thermo 400

# Run
run 100000
Generated 10 of 10 mixed pair_coeff terms from arithmetic mixing rule
Per MPI rank memory allocation (min/avg/max) = 14.87 | 14.87 | 14.87 Mbytes
   Step          c_rg           Temp          E_pair    
         0   22.649         0              64.808349    
       400   22.625289      317.0143       72.140161    
       800   22.660714      299.16532      67.75119     
      1200   22.732709      287.55603      71.9582      
      1600   22.67892       312.20093      79.245286    
      2000   22.687534      315.78949      63.28526     
      2400   22.692719      277.42062      67.649223    
      2800   22.706371      302.14413      67.281761    
      3200   22.713676      296.68658      61.903026    
      3600   22.701028      314.31246      69.806823    
      4000   22.688705      312.49878      71.548363    
      4400   22.645896      291.39317      79.117526    
      4800   22.713728      298.3383       72.722901    
      5200   22.751191      296.86074      62.272965    
      5600   22.653731      309.74962      69.421154    
      6000   22.664196      295.78236      64.597802    
      6400   22.68163       273.073        74.377274    
      6800   22.678243      290.6029       66.990786    
      7200   22.727714      314.2312       61.757659    
      7600   22.750543      317.11689      78.018986    
      8000   22.715969      340.5224       70.750556    
      8400   22.719574      296.66714      59.917263    
      8800   22.76227       292.86602      67.960959    
      9200   22.727854      311.14363      68.018442    
      9600   22.838917      319.40782      76.493385    
     10000   22.850319      299.54505      67.443007    
     10400   22.733021      296.87079      68.570196    
     10800   22.732131      314.59341      82.483685    
     11200   22.73934       303.46328      64.694295    
     11600   22.692729      344.73485      59.499848    
     12000   22.711235      300.76781      74.519505    
     12400   22.769931      289.66043      62.677419    
     12800   22.722082      269.44579      67.341096    
     13200   22.71806       301.63299      67.823259    
     13600   22.681779      309.78501      67.404989    
     14000   22.6505        320.47195      68.861773    
     14400   22.715625      265.40082      64.928769    
     14800   22.715293      314.87362      64.17731     
     15200   22.669487      306.03775      87.436958    
     15600   22.723241      304.58812      69.337952    
     16000   22.814247      320.33356      66.251587    
     16400   22.759482      284.60211      64.922076    
     16800   22.811222      308.80612      67.986014    
     17200   22.840171      299.44865      63.403653    
     17600   22.851138      306.36701      73.845939    
     18000   22.77307       280.66772      65.030499    
     18400   22.789792      313.13236      72.480481    
     18800   22.78548       297.16878      68.858312    
     19200   22.794179      283.63644      66.302465    
     19600   22.748363      304.23173      74.362329    
     20000   22.655091      294.18328      70.825308    
     20400   22.703263      300.30033      74.820063    
     20800   22.668518      301.55302      82.606883    
     21200   22.724456      279.81623      68.364683    
     21600   22.770746      276.10794      60.805278    
     22000   22.735344      304.42933      72.814447    
     22400   22.778063      299.92076      64.406745    
     22800   22.822999      290.08905      69.696983    
     23200   22.840631      300.23369      65.920407    
     23600   22.770359      303.39063      65.186575    
     24000   22.7277        302.29218      63.8876      
     24400   22.724239      300.47825      66.319697    
     24800   22.732245      297.2621       76.016129    
     25200   22.745887      300.1104       68.650246    
     25600   22.693442      309.25374      70.930454    
     26000   22.650755      310.63269      56.654451    
     26400   22.662717      331.59365      60.498105    
     26800   22.631249      274.77249      62.585569    
     27200   22.634749      292.13008      63.368139    
     27600   22.636857      287.26005      63.537084    
     28000   22.627136      320.79297      55.822451    
     28400   22.605921      296.43174      65.285559    
     28800   22.607922      309.38685      63.564205    
     29200   22.59185       286.82751      56.665644    
     29600   22.576036      303.46436      63.928963    
     30000   22.548137      295.71589      61.71785     
     30400   22.545166      339.76864      64.644747    
     30800   22.638553      296.40047      65.496642    
     31200   22.626357      308.85464      57.840491    
     31600   22.617245      308.83012      65.786449    
     32000   22.5976        327.029        59.265275    
     32400   22.626685      291.16599      65.05216     
     32800   22.637952      309.09996      62.222657    
     33200   22.673965      297.46265      55.23904     
     33600   22.685         288.63999      70.352668    
     34000   22.671708      315.91389      65.069696    
     34400   22.695277      278.90504      68.203576    
     34800   22.764662      308.35203      67.930705    
     35200   22.736974      300.98385      75.957474    
     35600   22.712564      279.37189      62.785375    
     36000   22.711938      281.95447      64.524845    
     36400   22.721988      274.78619      66.78804     
     36800   22.746242      286.81792      75.067608    
     37200   22.729721      321.13339      56.4346      
     37600   22.696921      328.96641      62.368254    
     38000   22.707266      290.69157      64.762803    
     38400   22.702645      300.89676      65.341786    
     38800   22.699975      306.94165      62.179736    
     39200   22.649423      288.92562      61.958582    
     39600   22.60962       298.15364      63.935663    
     40000   22.696156      311.28211      67.756225    
     40400   22.696293      300.15055      63.919757    
     40800   22.713321      308.47461      67.854306    
     41200   22.701464      292.89335      64.558619    
     41600   22.728455      290.53413      68.618846    
     42000   22.701507      297.04394      53.714863    
     42400   22.713268      269.18356      61.18415     
     42800   22.680778      304.68025      52.843077    
     43200   22.716774      298.51145      61.673433    
     43600   22.710553      307.39925      61.114944    
     44000   22.727632      308.06835      60.067449    
     44400   22.677843      318.58245      68.710635    
     44800   22.702908      328.73669      70.010777    
     45200   22.62382       291.41203      57.198459    
     45600   22.563513      277.21238      57.086074    
     46000   22.593761      287.1934       55.671138    
     46400   22.542412      275.42582      56.864044    
     46800   22.540437      305.2561       56.510703    
     47200   22.564454      285.44663      54.476884    
     47600   22.523004      315.4826       61.571973    
     48000   22.557774      290.43395      59.278645    
     48400   22.577255      286.75438      71.001802    
     48800   22.514254      288.7783       59.767024    
     49200   22.531599      300.12721      51.210377    
     49600   22.510896      321.14061      66.066394    
     50000   22.478385      305.92328      58.300428    
     50400   22.517006      308.72649      59.038436    
     50800   22.563521      283.12826      58.441367    
     51200   22.551042      280.5557       62.807964    
     51600   22.625326      324.73509      61.96008     
     52000   22.617188      305.68043      56.367832    
     52400   22.508887      268.04358      55.522409    
     52800   22.526978      327.34715      68.719698    
     53200   22.555577      307.85589      56.503614    
     53600   22.586794      290.79172      62.270628    
     54000   22.590525      314.85643      63.166131    
     54400   22.578513      298.59314      62.759073    
     54800   22.557272      293.21677      57.285245    
     55200   22.526669      304.72802      68.840385    
     55600   22.555911      284.71769      71.306406    
     56000   22.582895      280.7246       65.742516    
     56400   22.642258      286.06746      57.162057    
     56800   22.66859       290.87262      60.95147     
     57200   22.604488      288.19121      65.488951    
     57600   22.642077      288.89957      67.530679    
     58000   22.618753      304.65213      55.088901    
     58400   22.654086      324.90038      67.544599    
     58800   22.714884      301.42701      60.134323    
     59200   22.789354      286.27794      64.889504    
     59600   22.861809      294.07951      58.107321    
     60000   22.811742      301.57904      58.288084    
     60400   22.784183      289.1916       54.19812     
     60800   22.749467      275.3037       58.620984    
     61200   22.796304      327.81269      67.027842    
     61600   22.887259      300.88205      59.790252    
     62000   22.875018      293.73637      62.466156    
     62400   22.870575      321.28634      61.649806    
     62800   22.933472      318.40732      63.499259    
     63200   22.942529      266.10059      69.392717    
     63600   22.918049      289.04255      62.321053    
     64000   22.907971      297.53584      66.648223    
     64400   22.894545      295.57315      58.430515    
     64800   22.857637      307.41854      60.52519     
     65200   22.833839      317.98587      68.352509    
     65600   22.87062       319.17895      53.202884    
     66000   22.804001      299.22996      61.526736    
     66400   22.757351      311.62566      56.762895    
     66800   22.721633      291.84229      54.372385    
     67200   22.823321      319.83139      60.404871    
     67600   22.862311      310.06885      66.091995    
     68000   22.805871      288.02346      64.875719    
     68400   22.808427      308.17362      63.445278    
     68800   22.776743      293.20792      58.629941    
     69200   22.770934      304.71761      73.034999    
     69600   22.753254      305.98466      63.648225    
     70000   22.722421      283.07525      58.224861    
     70400   22.683903      253.16013      66.66887     
     70800   22.676494      297.95752      62.927834    
     71200   22.61819       298.51127      49.214713    
     71600   22.667233      290.92914      69.720013    
     72000   22.660955      282.06335      58.963997    
     72400   22.665605      292.11686      67.156613    
     72800   22.69474       284.0396       61.613673    
     73200   22.688704      281.1766       59.052662    
     73600   22.679002      315.86553      57.547038    
     74000   22.646061      299.94295      59.772893    
     74400   22.540195      285.21766      62.840629    
     74800   22.551755      281.52099      67.120815    
     75200   22.500637      321.90101      59.049876    
     75600   22.488909      299.62863      64.731684    
     76000   22.484473      295.38194      64.634388    
     76400   22.462774      285.35852      62.455289    
     76800   22.458108      308.08542      51.891353    
     77200   22.409202      324.25547      55.81273     
     77600   22.415898      318.52985      66.280788    
     78000   22.322983      296.08806      50.633023    
     78400   22.300989      265.37426      56.793572    
     78800   22.315719      299.42986      69.634476    
     79200   22.264762      296.94352      56.296445    
     79600   22.212381      292.67127      56.217513    
     80000   22.16269       298.6598       65.624857    
     80400   22.204939      302.05959      55.360619    
     80800   22.207894      285.50273      52.386102    
     81200   22.205526      302.47848      58.033396    
     81600   22.238173      289.80834      61.439963    
     82000   22.205406      304.63896      59.582141    
     82400   22.141527      308.81571      55.924849    
     82800   22.214003      302.76702      60.881755    
     83200   22.16071       309.19256      56.830123    
     83600   22.16501       298.59234      59.540771    
     84000   22.146341      325.18975      60.556862    
     84400   22.177646      299.37561      50.832409    
     84800   22.166168      291.71168      62.21533     
     85200   22.147522      336.97644      60.450242    
     85600   22.157915      297.62954      59.797149    
     86000   22.171344      321.33106      58.759553    
     86400   22.148558      314.43187      53.122041    
     86800   22.086264      285.50548      60.660555    
     87200   22.143563      320.02668      61.619578    
     87600   22.164741      291.7673       57.755715    
     88000   22.121961      283.51301      62.821246    
     88400   22.113083      307.55046      52.391433    
     88800   22.067791      314.15466      59.917629    
     89200   22.027067      302.72292      54.57274     
     89600   22.056294      284.78311      60.785043    
     90000   22.070672      307.42323      59.029092    
     90400   22.081291      313.1976       62.360407    
     90800   22.146905      317.19249      50.982909    
     91200   22.157476      308.7183       52.30793     
     91600   22.055174      281.81798      55.213503    
     92000   22.053171      315.39385      60.753034    
     92400   22.018376      308.3853       61.647909    
     92800   21.968779      314.04155      63.007438    
     93200   21.927314      292.37205      51.853879    
     93600   21.934744      299.68183      65.495065    
     94000   21.925656      253.5642       64.106859    
     94400   21.866608      298.02456      60.334715    
     94800   21.816538      300.6954       64.504557    
     95200   21.768013      317.03216      68.195642    
     95600   21.698082      330.78502      56.528393    
     96000   21.608721      299.83397      60.369888    
     96400   21.554185      318.21936      63.87114     
     96800   21.645368      308.66506      61.072654    
     97200   21.672569      299.52535      63.675659    
     97600   21.704379      282.73708      69.441884    
     98000   21.765675      305.32948      62.025654    
     98400   21.698066      321.19985      56.450209    
     98800   21.698751      312.02531      66.053238    
     99200   21.698934      318.42233      52.815303    
     99600   21.760099      296.95314      60.101123    
    100000   21.735393      280.88495      64.575454    
Loop time of 10.2941 on 1 procs for 100000 steps with 235 atoms

Performance: 839.316 ns/day, 0.029 hours/ns, 9714.303 timesteps/s, 2.283 Matom-step/s
100.0% CPU use with 1 MPI tasks x 1 OpenMP threads

MPI task timing breakdown:
Section |  min time  |  avg time  |  max time  |%varavg| %total
---------------------------------------------------------------
Pair    | 4.9532     | 4.9532     | 4.9532     |   0.0 | 48.12
Bond    | 3.8166     | 3.8166     | 3.8166     |   0.0 | 37.08
Neigh   | 0.15184    | 0.15184    | 0.15184    |   0.0 |  1.47
Comm    | 0.16514    | 0.16514    | 0.16514    |   0.0 |  1.60
Output  | 0.061736   | 0.061736   | 0.061736   |   0.0 |  0.60
Modify  | 1.0984     | 1.0984     | 1.0984     |   0.0 | 10.67
Other   |            | 0.0471     |            |       |  0.46

Nlocal:            235 ave         235 max         235 min
Histogram: 1 0 0 0 0 0 0 0 0 0
Nghost:            489 ave         489 max         489 min
Histogram: 1 0 0 0 0 0 0 0 0 0
Neighs:           8066 ave        8066 max        8066 min
Histogram: 1 0 0 0 0 0 0 0 0 0

Total # of neighbors = 8066
Ave neighs/atom = 34.323404
Ave special neighs/atom = 10.944681
Neighbor list builds = 750
Dangerous builds = 0
Total wall time: 0:00:10
